Pt111                                   
   1.00000000000000     
    10.7600000000006002    0.0000000000000000    0.0000000000000000
     5.3800000299999997    9.3184335428900003    0.0000000000000000
     0.0000000000000000    0.0000000000000000   22.0000000000000000
   Pt
    80
Direct
  0.7845331071755837  0.8694397742008277  0.3328526702028753
  0.0345459404754607  0.8694181509104411  0.3329478384892752
  0.0345640106489782  0.6193172739662671  0.3331134302166348
  0.7870507737615782  0.8678426501137295  0.0118914650547737
  0.0372779274028261  0.8675957294738765  0.0120272303653834
  0.0372176546709824  0.6177043352548353  0.0121421606063521
  0.6194988703776616  0.2017495795515387  0.1202997087917765
  0.3695247491916263  0.9517159934938491  0.1204126198165696
  0.0344007326965823  0.3694200623178290  0.3331289340591113
  0.0373296096494755  0.3676911864227890  0.0122090446113887
  0.8694093127860896  0.2017026668851756  0.1202177461073930
  0.9518885242182620  0.5356458531887469  0.2267730859137913
  0.2844110080174715  0.1194522412675880  0.3330780075985302
  0.5344596055494293  0.6194918919009424  0.3329046994053044
  0.2842949230423102  0.3695090196965012  0.3332259949727359
  0.2870600198376962  0.1177634060751060  0.0121583736615207
  0.5373371835735057  0.6177040926769308  0.0120640131237835
  0.2872304570402520  0.3676393499823760  0.0122185184857670
  0.6193960526016085  0.9517600124510111  0.1202730608997626
  0.7018851700435391  0.7857061474859321  0.2265812336692576
  0.8695683047941287  0.7017388518923156  0.1203580528714454
  0.6196065814587897  0.4516686275660433  0.1203542382294032
  0.2845806921776273  0.8694126771821331  0.3329774162916124
  0.2871328715558406  0.8677371731764580  0.0121088706994428
  0.6195450881254345  0.7017667714060991  0.1203316727612531
  0.2018979703838255  0.0356565589765765  0.2267215204421049
  0.8671097135183459  0.9530382636181471  0.4411325242900972
  0.1170837591205611  0.4529626437374858  0.4415629431650103
  0.1172175538462028  0.9530901725746332  0.4412882723849947
  0.8670751479220513  0.4530872468928706  0.4412840008987331
  0.3672951739580839  0.9529542606766341  0.4413266373974238
  0.8671583151302258  0.2030715044098628  0.4412624766107243
  0.1170572292898129  0.2030540712477915  0.4413741314589856
  0.6170975382126542  0.9530823197269029  0.4411908274711323
  0.8672690581756939  0.7031077056203117  0.4412633401518207
  0.3671369063445837  0.2031547624162755  0.4414201143900556
  0.3670410654116552  0.7030692481056420  0.4413292774547770
  0.6171165049451304  0.4530947260873290  0.4412403549018720
  0.1170462682064368  0.7031123307174809  0.4413803953771946
  0.6171268343733516  0.2030998818417231  0.4411486691739910
  0.5344041376869555  0.3694557928545947  0.3329647217436644
  0.5371524948359720  0.3677961556508080  0.0120238872800229
  0.5344791528914996  0.1194354156090967  0.3329409152641531
  0.5372394747348821  0.1176870910696479  0.0119897472182515
  0.8695109600198094  0.4517377913960274  0.1203964047859003
  0.1195466443858280  0.4517831574506630  0.1205550520116105
  0.0344271817568753  0.1194698352559627  0.3330039694504379
  0.0372068182387721  0.1177123309390211  0.0119642838816389
  0.1194225913916114  0.9517349887480009  0.1203894900259499
  0.3671933663344902  0.4529507812884930  0.4414964142003726
  0.4519470581064269  0.5356701626480600  0.2267137118424927
  0.6170493654622362  0.7031598419742906  0.4412216551789570
  0.3694448685705041  0.2017132153602788  0.1205189144719370
  0.1194889419612011  0.2017415566859526  0.1204813487199914
  0.9520412731800008  0.7856569070856878  0.2266599252517238
  0.7844718259759631  0.6194656093852799  0.3329240656868677
  0.2844498231505170  0.6193902213723490  0.3331011744443089
  0.7872451077581104  0.6177036569189056  0.0120172767138271
  0.2871074736331636  0.6177557705510921  0.0121399544256136
  0.3696045377499431  0.7017165415789961  0.1204705405021258
  0.3695237591182590  0.4517107472020356  0.1205122697565884
  0.2018339005924616  0.2856478689627693  0.2268592269736089
  0.7844198578141786  0.3694069303109515  0.3329366484528649
  0.7872115450909760  0.3676675711575328  0.0119221864695405
  0.9518880873559183  0.0356157760693563  0.2265726137465336
  0.4520412524463069  0.7856743874599061  0.2266590985083994
  0.7018665378521192  0.5357232248405523  0.2266223372472140
  0.2019689947980297  0.7856281610969376  0.2267597504838719
  0.4518865575079332  0.0356451396648865  0.2266748012762818
  0.1195166028219177  0.7017393101368370  0.1204827953752670
  0.7018235511208175  0.0357055587337101  0.2265234204669113
  0.7844823365622773  0.1194384973872005  0.3328529960618596
  0.5345427582656654  0.8694124003833181  0.3328973127822437
  0.7871741037901856  0.1177562090728443  0.0118464780658343
  0.5372289676249196  0.8676320461912610  0.0119001055001249
  0.2019731684837183  0.5356969625587880  0.2268671268350602
  0.9517880149798614  0.2856686043685528  0.2266917717359291
  0.8694763515645434  0.9517922036447644  0.1202551203178217
  0.7017813251864382  0.2856959689897209  0.2265347343021986
  0.4518497294873711  0.2856984717558717  0.2267302260679074
 
  0.00000000E+00  0.00000000E+00  0.00000000E+00
  0.00000000E+00  0.00000000E+00  0.00000000E+00
  0.00000000E+00  0.00000000E+00  0.00000000E+00
  0.00000000E+00  0.00000000E+00  0.00000000E+00
  0.00000000E+00  0.00000000E+00  0.00000000E+00
  0.00000000E+00  0.00000000E+00  0.00000000E+00
  0.00000000E+00  0.00000000E+00  0.00000000E+00
  0.00000000E+00  0.00000000E+00  0.00000000E+00
  0.00000000E+00  0.00000000E+00  0.00000000E+00
  0.00000000E+00  0.00000000E+00  0.00000000E+00
  0.00000000E+00  0.00000000E+00  0.00000000E+00
  0.00000000E+00  0.00000000E+00  0.00000000E+00
  0.00000000E+00  0.00000000E+00  0.00000000E+00
  0.00000000E+00  0.00000000E+00  0.00000000E+00
  0.00000000E+00  0.00000000E+00  0.00000000E+00
  0.00000000E+00  0.00000000E+00  0.00000000E+00
  0.00000000E+00  0.00000000E+00  0.00000000E+00
  0.00000000E+00  0.00000000E+00  0.00000000E+00
  0.00000000E+00  0.00000000E+00  0.00000000E+00
  0.00000000E+00  0.00000000E+00  0.00000000E+00
  0.00000000E+00  0.00000000E+00  0.00000000E+00
  0.00000000E+00  0.00000000E+00  0.00000000E+00
  0.00000000E+00  0.00000000E+00  0.00000000E+00
  0.00000000E+00  0.00000000E+00  0.00000000E+00
  0.00000000E+00  0.00000000E+00  0.00000000E+00
  0.00000000E+00  0.00000000E+00  0.00000000E+00
  0.00000000E+00  0.00000000E+00  0.00000000E+00
  0.00000000E+00  0.00000000E+00  0.00000000E+00
  0.00000000E+00  0.00000000E+00  0.00000000E+00
  0.00000000E+00  0.00000000E+00  0.00000000E+00
  0.00000000E+00  0.00000000E+00  0.00000000E+00
  0.00000000E+00  0.00000000E+00  0.00000000E+00
  0.00000000E+00  0.00000000E+00  0.00000000E+00
  0.00000000E+00  0.00000000E+00  0.00000000E+00
  0.00000000E+00  0.00000000E+00  0.00000000E+00
  0.00000000E+00  0.00000000E+00  0.00000000E+00
  0.00000000E+00  0.00000000E+00  0.00000000E+00
  0.00000000E+00  0.00000000E+00  0.00000000E+00
  0.00000000E+00  0.00000000E+00  0.00000000E+00
  0.00000000E+00  0.00000000E+00  0.00000000E+00
  0.00000000E+00  0.00000000E+00  0.00000000E+00
  0.00000000E+00  0.00000000E+00  0.00000000E+00
  0.00000000E+00  0.00000000E+00  0.00000000E+00
  0.00000000E+00  0.00000000E+00  0.00000000E+00
  0.00000000E+00  0.00000000E+00  0.00000000E+00
  0.00000000E+00  0.00000000E+00  0.00000000E+00
  0.00000000E+00  0.00000000E+00  0.00000000E+00
  0.00000000E+00  0.00000000E+00  0.00000000E+00
  0.00000000E+00  0.00000000E+00  0.00000000E+00
  0.00000000E+00  0.00000000E+00  0.00000000E+00
  0.00000000E+00  0.00000000E+00  0.00000000E+00
  0.00000000E+00  0.00000000E+00  0.00000000E+00
  0.00000000E+00  0.00000000E+00  0.00000000E+00
  0.00000000E+00  0.00000000E+00  0.00000000E+00
  0.00000000E+00  0.00000000E+00  0.00000000E+00
  0.00000000E+00  0.00000000E+00  0.00000000E+00
  0.00000000E+00  0.00000000E+00  0.00000000E+00
  0.00000000E+00  0.00000000E+00  0.00000000E+00
  0.00000000E+00  0.00000000E+00  0.00000000E+00
  0.00000000E+00  0.00000000E+00  0.00000000E+00
  0.00000000E+00  0.00000000E+00  0.00000000E+00
  0.00000000E+00  0.00000000E+00  0.00000000E+00
  0.00000000E+00  0.00000000E+00  0.00000000E+00
  0.00000000E+00  0.00000000E+00  0.00000000E+00
  0.00000000E+00  0.00000000E+00  0.00000000E+00
  0.00000000E+00  0.00000000E+00  0.00000000E+00
  0.00000000E+00  0.00000000E+00  0.00000000E+00
  0.00000000E+00  0.00000000E+00  0.00000000E+00
  0.00000000E+00  0.00000000E+00  0.00000000E+00
  0.00000000E+00  0.00000000E+00  0.00000000E+00
  0.00000000E+00  0.00000000E+00  0.00000000E+00
  0.00000000E+00  0.00000000E+00  0.00000000E+00
  0.00000000E+00  0.00000000E+00  0.00000000E+00
  0.00000000E+00  0.00000000E+00  0.00000000E+00
  0.00000000E+00  0.00000000E+00  0.00000000E+00
  0.00000000E+00  0.00000000E+00  0.00000000E+00
  0.00000000E+00  0.00000000E+00  0.00000000E+00
  0.00000000E+00  0.00000000E+00  0.00000000E+00
  0.00000000E+00  0.00000000E+00  0.00000000E+00
  0.00000000E+00  0.00000000E+00  0.00000000E+00
