10.56                                   
   1.00000000000000     
    10.5600004195999997    0.0000000000000000    0.0000000000000000
     5.2800002097999998    9.1452286273999999    0.0000000000000000
     0.0000000000000000    0.0000000000000000   22.0000000000000000
   Pt   Cu   Ni   Fe   Co   H 
    32    13    10    13    12     1
Selective dynamics
Direct
  0.7900172632455948  0.8762842072520556  0.3164460939090930   F   F   F
  0.0445614049361183  0.8812551310585732  0.3159449783045432   F   F   F
  0.2880091813044885  0.3776777056892442  0.3199741948681805   F   F   F
  0.8794755288777480  0.9574129052571649  0.4240185172818158   F   F   F
  0.1283029041910027  0.4573506965444878  0.4274523404181849   F   F   F
  0.1300143081957046  0.9580642614389134  0.4220217371181789   F   F   F
  0.8801443611423849  0.4564925378893321  0.4225496974954552   F   F   F
  0.3772599758007900  0.9579880180415756  0.4173084394227260   F   F   F
  0.8781968496617978  0.2089614793636159  0.4217772887727307   F   F   F
  0.1294149861382792  0.2077933045989084  0.4226158438409087   F   F   F
  0.6271418050636086  0.9599486564171187  0.4306346056045456   F   F   F
  0.8821142602754719  0.7053153556024157  0.4237789578954576   F   F   F
  0.3764951945547281  0.2090796741779855  0.4267094721363662   F   F   F
  0.3786989346008411  0.7084140171946558  0.4257412177954549   F   F   F
  0.6294565333696482  0.4592914270525057  0.4236502348954545   F   F   F
  0.1287838052360755  0.7084189500839102  0.4260136545272744   F   F   F
  0.6290238754256663  0.2071834867991384  0.4245358231409071   F   F   F
  0.5552926533710121  0.3701410148192608  0.3176699191590941   F   F   F
  0.5387563936899085  0.1208728438661524  0.3159365792636351   F   F   F
  0.5474557691032089  0.1224145471164988  0.0383540260045478   F   F   F
  0.1236064448242544  0.4619868652207941  0.1274066645318186   F   F   F
  0.0409429394870031  0.1345239100216773  0.3132604838045481   F   F   F
  0.0323512895519684  0.1348251109224066  0.0344153389136395   F   F   F
  0.1267130615797001  0.9548495891329765  0.1316270848000016   F   F   F
  0.3780550357017418  0.4594029788399538  0.4264710342499995   F   F   F
  0.4577929944478427  0.5456247416986244  0.2200856014136363   F   F   F
  0.6278779206901319  0.7071056553605786  0.4304861001409108   F   F   F
  0.9641386328546346  0.7927262172516194  0.2176139731681843   F   F   F
  0.7877673675794128  0.6241729702959731  0.3194696885227302   F   F   F
  0.2938562893168566  0.6310547458932945  0.3191275805999965   F   F   F
  0.2112359165491497  0.2837402313404738  0.2226962608636356   F   F   F
  0.7170982237511581  0.5368531721328651  0.2205881042545457   F   F   F
  0.0414974264941037  0.6244106906076823  0.3205905616590883   F   F   F
  0.7972000438328166  0.8697589236827383  0.0374023497136378   F   F   F
  0.0440625835034183  0.8722191461787219  0.0345072269909110   F   F   F
  0.0392610792287442  0.6311846045166689  0.0351220357090938   F   F   F
  0.6257475188796491  0.2142350187539250  0.1326781676272759   F   F   F
  0.3760834871882253  0.9610439443107381  0.1305574189681806   F   F   F
  0.0407428924620703  0.3798885562129115  0.3202923350681814   F   F   F
  0.0396170568831593  0.3768031419767439  0.0334889225727295   F   F   F
  0.8676193552394906  0.2152196349365170  0.1309720674090897   F   F   F
  0.9596267895245916  0.5454269423352969  0.2247318812727244   F   F   F
  0.2931657117510085  0.1196882696754642  0.3191307000136376   F   F   F
  0.5407267639586379  0.6310743587326613  0.3219673472318192   F   F   F
  0.2917831490269052  0.1260602338629297  0.0372542039999999   F   F   F
  0.5454515139348999  0.6259782464101775  0.0420624231136344   F   F   F
  0.3067879116385299  0.3735680389951384  0.0391298778454541   F   F   F
  0.6278828336866127  0.9518576864791655  0.1326303949409109   F   F   F
  0.7014205873461066  0.7982020760125437  0.2228083038681845   F   F   F
  0.8663351732921925  0.7104737684778044  0.1283473372272752   F   F   F
  0.6246753788169244  0.4577386687586937  0.1281447755045448   F   F   F
  0.3011588517788368  0.8753926521764868  0.3159078426772695   F   F   F
  0.3061509070593971  0.8669645173489897  0.0394945869454517   F   F   F
  0.6189298912310122  0.7160352078547945  0.1315782563727268   F   F   F
  0.2158013217278736  0.0346202722424493  0.2239695528954542   F   F   F
  0.5413003481162377  0.3854934694292353  0.0392421232909115   F   F   F
  0.3793596896688101  0.2077414937564157  0.1304859276181816   F   F   F
  0.1397005988927233  0.7004273062357669  0.1260118729227244   F   F   F
  0.7032928047068907  0.0430698299351278  0.2223786639500034   F   F   F
  0.7954680461318375  0.1255629381489243  0.3231706283318161   F   F   F
  0.5403824393585239  0.8729330100924599  0.3179962477636380   F   F   F
  0.7886637734805362  0.1316311679178028  0.0356870601590913   F   F   F
  0.5500230713442207  0.8647745424215145  0.0409676415136389   F   F   F
  0.2133428810521139  0.5401467028500520  0.2246093103863629   F   F   F
  0.9628013650069889  0.2896499814519231  0.2215883351272723   F   F   F
  0.8674074857836018  0.9664102647932040  0.1274066662954567   F   F   F
  0.7175321873646183  0.2868729996907575  0.2245318191636372   F   F   F
  0.4591571903798268  0.2930458401412253  0.2237691903681807   F   F   F
  0.8738730802821166  0.4568980253572903  0.1267729113318197   F   F   F
  0.1172650635095778  0.2104917527411558  0.1300894581727263   F   F   F
  0.7847808401012983  0.6256565767374056  0.0430916531090944   F   F   F
  0.3044675991730514  0.6228429328419551  0.0413873785499987   F   F   F
  0.3774641631786082  0.7058247950696810  0.1277445443409064   F   F   F
  0.3790290951972111  0.4600384977577221  0.1289947120409067   F   F   F
  0.7967132136852939  0.3700848727345871  0.3188547270909083   F   F   F
  0.7878239818798747  0.3875206431014675  0.0411156729818174   F   F   F
  0.9438556562023948  0.0510421196689848  0.2234485127000028   F   F   F
  0.4570233967922803  0.8026344196806434  0.2250269443545463   F   F   F
  0.2162964734646451  0.7953313450368995  0.2247401188045473   F   F   F
  0.4610885657498471  0.0339352508881134  0.2216139020181842   F   F   F
  0.6100379953850277  0.8438071243052007  0.4810794620363616   T   T   T
 
  0.00000000E+00  0.00000000E+00  0.00000000E+00
  0.00000000E+00  0.00000000E+00  0.00000000E+00
  0.00000000E+00  0.00000000E+00  0.00000000E+00
  0.00000000E+00  0.00000000E+00  0.00000000E+00
  0.00000000E+00  0.00000000E+00  0.00000000E+00
  0.00000000E+00  0.00000000E+00  0.00000000E+00
  0.00000000E+00  0.00000000E+00  0.00000000E+00
  0.00000000E+00  0.00000000E+00  0.00000000E+00
  0.00000000E+00  0.00000000E+00  0.00000000E+00
  0.00000000E+00  0.00000000E+00  0.00000000E+00
  0.00000000E+00  0.00000000E+00  0.00000000E+00
  0.00000000E+00  0.00000000E+00  0.00000000E+00
  0.00000000E+00  0.00000000E+00  0.00000000E+00
  0.00000000E+00  0.00000000E+00  0.00000000E+00
  0.00000000E+00  0.00000000E+00  0.00000000E+00
  0.00000000E+00  0.00000000E+00  0.00000000E+00
  0.00000000E+00  0.00000000E+00  0.00000000E+00
  0.00000000E+00  0.00000000E+00  0.00000000E+00
  0.00000000E+00  0.00000000E+00  0.00000000E+00
  0.00000000E+00  0.00000000E+00  0.00000000E+00
  0.00000000E+00  0.00000000E+00  0.00000000E+00
  0.00000000E+00  0.00000000E+00  0.00000000E+00
  0.00000000E+00  0.00000000E+00  0.00000000E+00
  0.00000000E+00  0.00000000E+00  0.00000000E+00
  0.00000000E+00  0.00000000E+00  0.00000000E+00
  0.00000000E+00  0.00000000E+00  0.00000000E+00
  0.00000000E+00  0.00000000E+00  0.00000000E+00
  0.00000000E+00  0.00000000E+00  0.00000000E+00
  0.00000000E+00  0.00000000E+00  0.00000000E+00
  0.00000000E+00  0.00000000E+00  0.00000000E+00
  0.00000000E+00  0.00000000E+00  0.00000000E+00
  0.00000000E+00  0.00000000E+00  0.00000000E+00
  0.00000000E+00  0.00000000E+00  0.00000000E+00
  0.00000000E+00  0.00000000E+00  0.00000000E+00
  0.00000000E+00  0.00000000E+00  0.00000000E+00
  0.00000000E+00  0.00000000E+00  0.00000000E+00
  0.00000000E+00  0.00000000E+00  0.00000000E+00
  0.00000000E+00  0.00000000E+00  0.00000000E+00
  0.00000000E+00  0.00000000E+00  0.00000000E+00
  0.00000000E+00  0.00000000E+00  0.00000000E+00
  0.00000000E+00  0.00000000E+00  0.00000000E+00
  0.00000000E+00  0.00000000E+00  0.00000000E+00
  0.00000000E+00  0.00000000E+00  0.00000000E+00
  0.00000000E+00  0.00000000E+00  0.00000000E+00
  0.00000000E+00  0.00000000E+00  0.00000000E+00
  0.00000000E+00  0.00000000E+00  0.00000000E+00
  0.00000000E+00  0.00000000E+00  0.00000000E+00
  0.00000000E+00  0.00000000E+00  0.00000000E+00
  0.00000000E+00  0.00000000E+00  0.00000000E+00
  0.00000000E+00  0.00000000E+00  0.00000000E+00
  0.00000000E+00  0.00000000E+00  0.00000000E+00
  0.00000000E+00  0.00000000E+00  0.00000000E+00
  0.00000000E+00  0.00000000E+00  0.00000000E+00
  0.00000000E+00  0.00000000E+00  0.00000000E+00
  0.00000000E+00  0.00000000E+00  0.00000000E+00
  0.00000000E+00  0.00000000E+00  0.00000000E+00
  0.00000000E+00  0.00000000E+00  0.00000000E+00
  0.00000000E+00  0.00000000E+00  0.00000000E+00
  0.00000000E+00  0.00000000E+00  0.00000000E+00
  0.00000000E+00  0.00000000E+00  0.00000000E+00
  0.00000000E+00  0.00000000E+00  0.00000000E+00
  0.00000000E+00  0.00000000E+00  0.00000000E+00
  0.00000000E+00  0.00000000E+00  0.00000000E+00
  0.00000000E+00  0.00000000E+00  0.00000000E+00
  0.00000000E+00  0.00000000E+00  0.00000000E+00
  0.00000000E+00  0.00000000E+00  0.00000000E+00
  0.00000000E+00  0.00000000E+00  0.00000000E+00
  0.00000000E+00  0.00000000E+00  0.00000000E+00
  0.00000000E+00  0.00000000E+00  0.00000000E+00
  0.00000000E+00  0.00000000E+00  0.00000000E+00
  0.00000000E+00  0.00000000E+00  0.00000000E+00
  0.00000000E+00  0.00000000E+00  0.00000000E+00
  0.00000000E+00  0.00000000E+00  0.00000000E+00
  0.00000000E+00  0.00000000E+00  0.00000000E+00
  0.00000000E+00  0.00000000E+00  0.00000000E+00
  0.00000000E+00  0.00000000E+00  0.00000000E+00
  0.00000000E+00  0.00000000E+00  0.00000000E+00
  0.00000000E+00  0.00000000E+00  0.00000000E+00
  0.00000000E+00  0.00000000E+00  0.00000000E+00
  0.00000000E+00  0.00000000E+00  0.00000000E+00
  0.00000000E+00  0.00000000E+00  0.00000000E+00
