PtM\(2)                                 
   1.00000000000000     
    10.5600004195999997    0.0000000000000000    0.0000000000000000
     5.2800002097999998    9.1452286273999999    0.0000000000000000
     0.0000000000000000    0.0000000000000000   22.0000000000000000
   Cu   Pt   H 
    64    16     1
Selective dynamics
Direct
  0.7850644927349221  0.8690752096563332  0.3144981423748634   T   T   T
  0.0347561741812672  0.8695068097044987  0.3142202933189661   T   T   T
  0.0349373104389725  0.6191054180225569  0.3143205411564388   T   T   T
  0.7862489977741944  0.8683580306463838  0.0449029301409070   F   F   F
  0.0363259342032549  0.8683109594885678  0.0449037755136388   F   F   F
  0.0362926956164600  0.6183453800441185  0.0449040668727250   F   F   F
  0.6190059373410435  0.2020352778895287  0.1352781702363615   F   F   F
  0.3690287182127392  0.9520179664196391  0.1352793628454521   F   F   F
  0.0347830173894752  0.3696915657935381  0.3144377034956169   T   T   T
  0.0363223169521234  0.3683400816035913  0.0449042535590891   F   F   F
  0.8690354394784165  0.2020170446548164  0.1352869309954556   F   F   F
  0.9520819993025638  0.5354207312092684  0.2248055194542099   T   T   T
  0.2852461442024451  0.1194358084335256  0.3143542018208069   T   T   T
  0.5344284097042816  0.6188499983149918  0.3160539382879741   T   T   T
  0.2852956324223821  0.3696748338658865  0.3150354898489487   T   T   T
  0.2862743719031045  0.1183406332300407  0.0449050022409097   F   F   F
  0.5363161573872759  0.6183452978263801  0.0448859087045435   F   F   F
  0.2863548261650166  0.3683290234218717  0.0448970020954533   F   F   F
  0.6190115951470077  0.9519934922693309  0.1352729054090887   F   F   F
  0.7020269307591449  0.7854617816131328  0.2248327805913241   T   T   T
  0.8690562341340424  0.7019773347563785  0.1352801621909094   F   F   F
  0.6190154306749704  0.4520216268748740  0.1352790409500031   F   F   F
  0.2849142163645557  0.8694349764831780  0.3148514835665234   T   T   T
  0.2863313801676881  0.8683468335616311  0.0448881439999980   F   F   F
  0.6190297104958304  0.7020185649120592  0.1352794445545484   F   F   F
  0.2020145468777559  0.0355815610994350  0.2249035684118820   T   T   T
  0.5344572716031936  0.3703662495404364  0.3161023161864350   T   T   T
  0.5362909971988969  0.3683687437629146  0.0448882480863659   F   F   F
  0.5350390789373738  0.1190141050778934  0.3142471898707686   T   T   T
  0.5363149216246015  0.1183187474021210  0.0448927739090905   F   F   F
  0.8690821575080889  0.4519764673149709  0.1352776201363639   F   F   F
  0.1190566022182153  0.4520153678952070  0.1352898458409086   F   F   F
  0.0345584186949770  0.1194077743711306  0.3143360685666751   T   T   T
  0.0362816687696892  0.1183447565605249  0.0449075346136354   F   F   F
  0.1190601259472075  0.9519896514796216  0.1352788457909071   F   F   F
  0.4520431099356245  0.5355552271529007  0.2256630701419934   T   T   T
  0.3690244471336612  0.2020149772051383  0.1352856928499975   F   F   F
  0.1190303050251416  0.2020411246214309  0.1352914691636329   F   F   F
  0.9521234733833666  0.7854437816971914  0.2248353085496526   T   T   T
  0.7851450449298822  0.6191225460816232  0.3143245795353702   T   T   T
  0.2859014992759023  0.6189117150936890  0.3159959232678142   T   T   T
  0.7862585535986497  0.6183514669231087  0.0448983113227257   F   F   F
  0.2863148512113511  0.6183444775079039  0.0448935090136331   F   F   F
  0.3690604108637601  0.7020085334733963  0.1352746690909115   F   F   F
  0.3690289842654053  0.4520183087839627  0.1352848660681829   F   F   F
  0.2021186703305641  0.2860385383174935  0.2249932728274986   T   T   T
  0.7843602814352343  0.3696432910578928  0.3150410472531724   T   T   T
  0.7862455880820818  0.3683649368487991  0.0448978039272703   F   F   F
  0.9521184266741334  0.0357165283620025  0.2247759618258993   T   T   T
  0.4519385073629020  0.7850591719374145  0.2252837026788749   T   T   T
  0.7012004185481518  0.5356851283030172  0.2252402818605093   T   T   T
  0.2026087570912062  0.7851193097661766  0.2252688098979154   T   T   T
  0.4517610393708102  0.0357152380293865  0.2247778954706450   T   T   T
  0.1190753377591065  0.7019761661032575  0.1352883550727242   F   F   F
  0.7020102847619992  0.0355575345982263  0.2248361855103865   T   T   T
  0.7851454409084242  0.1190134362645651  0.3142482663867279   T   T   T
  0.5349658660890921  0.8695157556871852  0.3142277560008502   T   T   T
  0.7863001972648362  0.1183328961790693  0.0449101627227293   F   F   F
  0.5362660313703174  0.8683264854426795  0.0448757432500031   F   F   F
  0.2026982096196295  0.5356808996811318  0.2252395310020265   T   T   T
  0.9514404866831341  0.2860462439598265  0.2249849856248873   T   T   T
  0.8690701809434032  0.9519851025282833  0.1352848888045486   F   F   F
  0.7013870351546063  0.2862172789723047  0.2252604251694128   T   T   T
  0.4520312627504341  0.2862153494810522  0.2252621346564452   T   T   T
  0.8675967776271933  0.9538734050694228  0.4136407826023870   T   T   T
  0.1166795002636074  0.4538827273814278  0.4136359316109228   T   T   T
  0.1167462025793906  0.9540454850528726  0.4134786524321885   T   T   T
  0.8680740393689647  0.4539423067217805  0.4136193898098839   T   T   T
  0.3677573494936918  0.9541014855797959  0.4134856229414086   T   T   T
  0.8679642200977509  0.2028493727139764  0.4135001821330706   T   T   T
  0.1174538665417799  0.2036379109357422  0.4129106638546688   T   T   T
  0.6169911541455916  0.9539160461024782  0.4136576472262310   T   T   T
  0.8675664079085859  0.7033814751886215  0.4136559955307409   T   T   T
  0.3676543131362104  0.2029806798767947  0.4135326707945020   T   T   T
  0.3649333430137324  0.7085540164312208  0.4160264774579943   T   T   T
  0.6222214194998085  0.4511314143316447  0.4163592056862723   T   T   T
  0.1142265931130663  0.7050932924940704  0.4130468067465825   T   T   T
  0.6190877655267244  0.2003933417890078  0.4130596379492888   T   T   T
  0.3652031683606976  0.4513844161306231  0.4162895958295735   T   T   T
  0.6192924712989155  0.7051281593768056  0.4130584285242768   T   T   T
  0.4513314989269029  0.5388316799099437  0.4607793608357917   T   T   T
 
  0.00000000E+00  0.00000000E+00  0.00000000E+00
  0.00000000E+00  0.00000000E+00  0.00000000E+00
  0.00000000E+00  0.00000000E+00  0.00000000E+00
  0.00000000E+00  0.00000000E+00  0.00000000E+00
  0.00000000E+00  0.00000000E+00  0.00000000E+00
  0.00000000E+00  0.00000000E+00  0.00000000E+00
  0.00000000E+00  0.00000000E+00  0.00000000E+00
  0.00000000E+00  0.00000000E+00  0.00000000E+00
  0.00000000E+00  0.00000000E+00  0.00000000E+00
  0.00000000E+00  0.00000000E+00  0.00000000E+00
  0.00000000E+00  0.00000000E+00  0.00000000E+00
  0.00000000E+00  0.00000000E+00  0.00000000E+00
  0.00000000E+00  0.00000000E+00  0.00000000E+00
  0.00000000E+00  0.00000000E+00  0.00000000E+00
  0.00000000E+00  0.00000000E+00  0.00000000E+00
  0.00000000E+00  0.00000000E+00  0.00000000E+00
  0.00000000E+00  0.00000000E+00  0.00000000E+00
  0.00000000E+00  0.00000000E+00  0.00000000E+00
  0.00000000E+00  0.00000000E+00  0.00000000E+00
  0.00000000E+00  0.00000000E+00  0.00000000E+00
  0.00000000E+00  0.00000000E+00  0.00000000E+00
  0.00000000E+00  0.00000000E+00  0.00000000E+00
  0.00000000E+00  0.00000000E+00  0.00000000E+00
  0.00000000E+00  0.00000000E+00  0.00000000E+00
  0.00000000E+00  0.00000000E+00  0.00000000E+00
  0.00000000E+00  0.00000000E+00  0.00000000E+00
  0.00000000E+00  0.00000000E+00  0.00000000E+00
  0.00000000E+00  0.00000000E+00  0.00000000E+00
  0.00000000E+00  0.00000000E+00  0.00000000E+00
  0.00000000E+00  0.00000000E+00  0.00000000E+00
  0.00000000E+00  0.00000000E+00  0.00000000E+00
  0.00000000E+00  0.00000000E+00  0.00000000E+00
  0.00000000E+00  0.00000000E+00  0.00000000E+00
  0.00000000E+00  0.00000000E+00  0.00000000E+00
  0.00000000E+00  0.00000000E+00  0.00000000E+00
  0.00000000E+00  0.00000000E+00  0.00000000E+00
  0.00000000E+00  0.00000000E+00  0.00000000E+00
  0.00000000E+00  0.00000000E+00  0.00000000E+00
  0.00000000E+00  0.00000000E+00  0.00000000E+00
  0.00000000E+00  0.00000000E+00  0.00000000E+00
  0.00000000E+00  0.00000000E+00  0.00000000E+00
  0.00000000E+00  0.00000000E+00  0.00000000E+00
  0.00000000E+00  0.00000000E+00  0.00000000E+00
  0.00000000E+00  0.00000000E+00  0.00000000E+00
  0.00000000E+00  0.00000000E+00  0.00000000E+00
  0.00000000E+00  0.00000000E+00  0.00000000E+00
  0.00000000E+00  0.00000000E+00  0.00000000E+00
  0.00000000E+00  0.00000000E+00  0.00000000E+00
  0.00000000E+00  0.00000000E+00  0.00000000E+00
  0.00000000E+00  0.00000000E+00  0.00000000E+00
  0.00000000E+00  0.00000000E+00  0.00000000E+00
  0.00000000E+00  0.00000000E+00  0.00000000E+00
  0.00000000E+00  0.00000000E+00  0.00000000E+00
  0.00000000E+00  0.00000000E+00  0.00000000E+00
  0.00000000E+00  0.00000000E+00  0.00000000E+00
  0.00000000E+00  0.00000000E+00  0.00000000E+00
  0.00000000E+00  0.00000000E+00  0.00000000E+00
  0.00000000E+00  0.00000000E+00  0.00000000E+00
  0.00000000E+00  0.00000000E+00  0.00000000E+00
  0.00000000E+00  0.00000000E+00  0.00000000E+00
  0.00000000E+00  0.00000000E+00  0.00000000E+00
  0.00000000E+00  0.00000000E+00  0.00000000E+00
  0.00000000E+00  0.00000000E+00  0.00000000E+00
  0.00000000E+00  0.00000000E+00  0.00000000E+00
  0.00000000E+00  0.00000000E+00  0.00000000E+00
  0.00000000E+00  0.00000000E+00  0.00000000E+00
  0.00000000E+00  0.00000000E+00  0.00000000E+00
  0.00000000E+00  0.00000000E+00  0.00000000E+00
  0.00000000E+00  0.00000000E+00  0.00000000E+00
  0.00000000E+00  0.00000000E+00  0.00000000E+00
  0.00000000E+00  0.00000000E+00  0.00000000E+00
  0.00000000E+00  0.00000000E+00  0.00000000E+00
  0.00000000E+00  0.00000000E+00  0.00000000E+00
  0.00000000E+00  0.00000000E+00  0.00000000E+00
  0.00000000E+00  0.00000000E+00  0.00000000E+00
  0.00000000E+00  0.00000000E+00  0.00000000E+00
  0.00000000E+00  0.00000000E+00  0.00000000E+00
  0.00000000E+00  0.00000000E+00  0.00000000E+00
  0.00000000E+00  0.00000000E+00  0.00000000E+00
  0.00000000E+00  0.00000000E+00  0.00000000E+00
  0.00000000E+00  0.00000000E+00  0.00000000E+00
