Pt   H                                  
   1.00000000000000     
    10.5600004195999997    0.0000000000000000    0.0000000000000000
    -5.2800002097999998    9.1452286273999999    0.0000000000000000
     0.0000000000000000    0.0000000000000000   20.0000000000000000
   Pt   H 
    64     2
Selective dynamics
Direct
  0.9999984446215961  0.0000015553793773  0.0557922949150012   F   F   F
  0.3334789106547310  0.1682138218984933  0.1795238003371724   T   T   T
  0.1692656236960115  0.3335097375977226  0.3079156592620544   T   T   T
  0.0026760459326436  0.0025982940268935  0.4168057202145056   T   T   T
  0.9999984416169312  0.2500015483757210  0.0557922949150012   F   F   F
  0.3334455563978488  0.4165064483575049  0.1882580045986746   T   T   T
  0.1694059604242401  0.0871859819382700  0.3002187543669625   T   T   T
  1.0010294663338897  0.2498920472648040  0.4206456922143509   T   T   T
  0.2499984416169312  0.2500015483757210  0.0557922949150012   F   F   F
  0.0850454146258308  0.4162609668367300  0.1787758650216896   T   T   T
  0.4166324610857043  0.0844180718369295  0.2967542345334427   T   T   T
  0.2486636871109933  0.2466020964477262  0.4506099634272416   T   T   T
  0.2499984446215961  0.0000015553793773  0.0557922949150012   F   F   F
  0.0854672996526761  0.1682175427224760  0.1801196487097471   T   T   T
  0.4159306283319634  0.3342401889580843  0.3072100990133963   T   T   T
  0.2495038246929656  0.0002052490963392  0.4174268733865965   T   T   T
  0.4999984446215961  0.0000015553793773  0.0557922949150012   F   F   F
  0.8341634465211547  0.1666183655661821  0.1772795346835056   T   T   T
  0.6656213895209697  0.3333598869644904  0.2963864173352073   T   T   T
  0.5001148161111120  1.0000255305338432  0.4177949058481836   T   T   T
  0.4999984296188273  0.2500015483757210  0.0557922949150012   F   F   F
  0.8332529784719437  0.4164005188237057  0.1757781524163931   T   T   T
  0.6666529517754074  0.0833740011298727  0.2965841408662892   T   T   T
  0.5001643573418938  0.2501054155362503  0.4193493193810119   T   T   T
  0.7499984076207227  0.2500015483757210  0.0557922949150012   F   F   F
  0.5817272317194785  0.4164844622681411  0.1793390828392170   T   T   T
  0.9181154632885524  0.0840602308435262  0.2968034098825383   T   T   T
  0.7501871425247171  0.2501169098766012  0.4176225230417595   T   T   T
  0.7499984216197078  0.0000015553793773  0.0557922949150012   F   F   F
  0.5829891466470286  0.1668862836892276  0.1768276324930390   T   T   T
  0.9175125170022765  0.3324360997348290  0.2964503835954302   T   T   T
  0.7505687876490115  0.9998526654908130  0.4172036961795959   T   T   T
  0.9999984376190483  0.5000015423780582  0.0557922949150012   F   F   F
  0.3337421374758925  0.6649188980077172  0.1788145577790105   T   T   T
  0.1679275955472144  0.8340213648085729  0.2929965830580661   T   T   T
  1.0006772762504523  0.4997978095794654  0.4154046688295374   T   T   T
  0.9999984326223199  0.7500015093827130  0.0557922949150012   F   F   F
  0.3335930619494510  0.9167511043229147  0.1760561896633867   T   T   T
  0.1689781288461497  0.5812540103352657  0.2972853952532694   T   T   T
  1.0000053874610459  0.7503974463054977  0.4104824982010535   T   T   T
  0.2499984326223199  0.7500015093827130  0.0557922949150012   F   F   F
  0.0841862067886383  0.9180431457674297  0.1752454368267625   T   T   T
  0.4165008522752106  0.5807348240738588  0.3079549000723472   T   T   T
  0.2504623510371498  0.7495292823391847  0.4157797309115832   T   T   T
  0.2499984376190483  0.5000015423780582  0.0557922949150012   F   F   F
  0.0840198036710146  0.6660735336173437  0.1745397971681677   T   T   T
  0.4176664009254772  0.8326030251993303  0.2966023195868606   T   T   T
  0.2492400564204535  0.5011125473132267  0.4321146806358724   T   T   T
  0.4999984376190483  0.5000015423780582  0.0557922949150012   F   F   F
  0.8319185235919555  0.6658489446151166  0.1752135813007441   T   T   T
  0.6661625158912267  0.8321444580828711  0.2969381278006742   T   T   T
  0.5041809429405784  0.5021056638697198  0.4489900915955940   T   T   T
  0.4999984326223199  0.7500015093827130  0.0557922949150012   F   F   F
  0.8333067205929591  0.9166513513922940  0.1756588709705939   T   T   T
  0.6629219869007058  0.5808638138214191  0.3002082035429479   T   T   T
  0.5004892014265073  0.7493227186094968  0.4205887827254320   T   T   T
  0.7499984106242152  0.7500015093827130  0.0557922949150012   F   F   F
  0.5833171723820842  0.9158074241390853  0.1772939488968139   T   T   T
  0.9162017909494851  0.5823022685211592  0.2927082862318307   T   T   T
  0.7480916769769336  0.7479564068719956  0.4172878407344234   T   T   T
  0.7499983926190481  0.5000015423780582  0.0557922949150012   F   F   F
  0.5817525423361010  0.6645340923796443  0.1802924534417473   T   T   T
  0.9161545715193590  0.8338920970663236  0.2929424046137850   T   T   T
  0.7500911360023187  0.5007877516857141  0.4168610714800060   T   T   T
  0.3311466808530719  0.4150637937179345  0.5016170841324703   T   T   T
  0.4075887084982283  0.3402882410820470  0.5042129095412999   T   T   T
 
  0.00000000E+00  0.00000000E+00  0.00000000E+00
  0.00000000E+00  0.00000000E+00  0.00000000E+00
  0.00000000E+00  0.00000000E+00  0.00000000E+00
  0.00000000E+00  0.00000000E+00  0.00000000E+00
  0.00000000E+00  0.00000000E+00  0.00000000E+00
  0.00000000E+00  0.00000000E+00  0.00000000E+00
  0.00000000E+00  0.00000000E+00  0.00000000E+00
  0.00000000E+00  0.00000000E+00  0.00000000E+00
  0.00000000E+00  0.00000000E+00  0.00000000E+00
  0.00000000E+00  0.00000000E+00  0.00000000E+00
  0.00000000E+00  0.00000000E+00  0.00000000E+00
  0.00000000E+00  0.00000000E+00  0.00000000E+00
  0.00000000E+00  0.00000000E+00  0.00000000E+00
  0.00000000E+00  0.00000000E+00  0.00000000E+00
  0.00000000E+00  0.00000000E+00  0.00000000E+00
  0.00000000E+00  0.00000000E+00  0.00000000E+00
  0.00000000E+00  0.00000000E+00  0.00000000E+00
  0.00000000E+00  0.00000000E+00  0.00000000E+00
  0.00000000E+00  0.00000000E+00  0.00000000E+00
  0.00000000E+00  0.00000000E+00  0.00000000E+00
  0.00000000E+00  0.00000000E+00  0.00000000E+00
  0.00000000E+00  0.00000000E+00  0.00000000E+00
  0.00000000E+00  0.00000000E+00  0.00000000E+00
  0.00000000E+00  0.00000000E+00  0.00000000E+00
  0.00000000E+00  0.00000000E+00  0.00000000E+00
  0.00000000E+00  0.00000000E+00  0.00000000E+00
  0.00000000E+00  0.00000000E+00  0.00000000E+00
  0.00000000E+00  0.00000000E+00  0.00000000E+00
  0.00000000E+00  0.00000000E+00  0.00000000E+00
  0.00000000E+00  0.00000000E+00  0.00000000E+00
  0.00000000E+00  0.00000000E+00  0.00000000E+00
  0.00000000E+00  0.00000000E+00  0.00000000E+00
  0.00000000E+00  0.00000000E+00  0.00000000E+00
  0.00000000E+00  0.00000000E+00  0.00000000E+00
  0.00000000E+00  0.00000000E+00  0.00000000E+00
  0.00000000E+00  0.00000000E+00  0.00000000E+00
  0.00000000E+00  0.00000000E+00  0.00000000E+00
  0.00000000E+00  0.00000000E+00  0.00000000E+00
  0.00000000E+00  0.00000000E+00  0.00000000E+00
  0.00000000E+00  0.00000000E+00  0.00000000E+00
  0.00000000E+00  0.00000000E+00  0.00000000E+00
  0.00000000E+00  0.00000000E+00  0.00000000E+00
  0.00000000E+00  0.00000000E+00  0.00000000E+00
  0.00000000E+00  0.00000000E+00  0.00000000E+00
  0.00000000E+00  0.00000000E+00  0.00000000E+00
  0.00000000E+00  0.00000000E+00  0.00000000E+00
  0.00000000E+00  0.00000000E+00  0.00000000E+00
  0.00000000E+00  0.00000000E+00  0.00000000E+00
  0.00000000E+00  0.00000000E+00  0.00000000E+00
  0.00000000E+00  0.00000000E+00  0.00000000E+00
  0.00000000E+00  0.00000000E+00  0.00000000E+00
  0.00000000E+00  0.00000000E+00  0.00000000E+00
  0.00000000E+00  0.00000000E+00  0.00000000E+00
  0.00000000E+00  0.00000000E+00  0.00000000E+00
  0.00000000E+00  0.00000000E+00  0.00000000E+00
  0.00000000E+00  0.00000000E+00  0.00000000E+00
  0.00000000E+00  0.00000000E+00  0.00000000E+00
  0.00000000E+00  0.00000000E+00  0.00000000E+00
  0.00000000E+00  0.00000000E+00  0.00000000E+00
  0.00000000E+00  0.00000000E+00  0.00000000E+00
  0.00000000E+00  0.00000000E+00  0.00000000E+00
  0.00000000E+00  0.00000000E+00  0.00000000E+00
  0.00000000E+00  0.00000000E+00  0.00000000E+00
  0.00000000E+00  0.00000000E+00  0.00000000E+00
  0.00000000E+00  0.00000000E+00  0.00000000E+00
  0.00000000E+00  0.00000000E+00  0.00000000E+00
