Pt   H                                  
   1.00000000000000     
    10.5600004195999997    0.0000000000000000    0.0000000000000000
    -5.2800002097999998    9.1452286273999999    0.0000000000000000
     0.0000000000000000    0.0000000000000000   20.0000000000000000
   Pt   H 
    64     2
Selective dynamics
Direct
  0.9999984446215961  0.0000015553793773  0.0557922949150012   F   F   F
  0.3334592579740209  0.1686027652061580  0.1793195681633230   T   T   T
  0.1678004646165704  0.3325795524937343  0.3078915883104066   T   T   T
 -0.0000257250438109 -0.0001272534057189  0.4168341292714362   T   T   T
  0.9999984416169312  0.2500015483757210  0.0557922949150012   F   F   F
  0.3335768329451146  0.4166925782903162  0.1881490837942754   T   T   T
  0.1689935422034299  0.0863567937148684  0.3010053423521701   T   T   T
  0.9994229765592033  0.2491330773376716  0.4221858825910040   T   T   T
  0.2499984416169312  0.2500015483757210  0.0557922949150012   F   F   F
  0.0852586479363047  0.4160132212713146  0.1781121981926408   T   T   T
  0.4167240760135644  0.0836439949727808  0.2956551650216040   T   T   T
  0.2477974792114442  0.2474058003215510  0.4391893455616783   T   T   T
  0.2499984446215961  0.0000015553793773  0.0557922949150012   F   F   F
  0.0854744009333964  0.1683519860935811  0.1808837226332453   T   T   T
  0.4157918594925601  0.3339151246571909  0.3070349649058722   T   T   T
  0.2495189417826928 -0.0007721473646334  0.4180551375758879   T   T   T
  0.4999984446215961  0.0000015553793773  0.0557922949150012   F   F   F
  0.8342919551956886  0.1667304744835852  0.1773838955983047   T   T   T
  0.6658827895777237  0.3328635468891356  0.2954032332386688   T   T   T
  0.4999774523850992  0.9994915545087016  0.4171200969681978   T   T   T
  0.4999984296188273  0.2500015483757210  0.0557922949150012   F   F   F
  0.8330677223617164  0.4161443055762432  0.1751940841975519   T   T   T
  0.6665993677973268  0.0829335969485388  0.2963123121189953   T   T   T
  0.4995356677204211  0.2495455720769696  0.4179753671067451   T   T   T
  0.7499984076207227  0.2500015483757210  0.0557922949150012   F   F   F
  0.5815081000383152  0.4167272854783732  0.1791805715098588   T   T   T
  0.9171834710628908  0.0835186490887830  0.2973573698124934   T   T   T
  0.7497098070268693  0.2492234994271179  0.4167479346669964   T   T   T
  0.7499984216197078  0.0000015553793773  0.0557922949150012   F   F   F
  0.5829974156318780  0.1670350275551294  0.1759064550493409   T   T   T
  0.9175593596851727  0.3320556820806715  0.2957514061701428   T   T   T
  0.7495397653783219  0.9995555757001261  0.4184876673252352   T   T   T
  0.9999984376190483  0.5000015423780582  0.0557922949150012   F   F   F
  0.3342557379520475  0.6650796410722754  0.1783650907739059   T   T   T
  0.1677476663699112  0.8342205582111973  0.2917727841941165   T   T   T
  0.9995244167788948  0.4992882925969524  0.4133761539773906   T   T   T
  0.9999984326223199  0.7500015093827130  0.0557922949150012   F   F   F
  0.3340040509418845  0.9170774520406286  0.1754244929738556   T   T   T
  0.1683797048508155  0.5814588507769113  0.2952887502209460   T   T   T
  0.9994993144637230  0.7496163045029127  0.4091502802271338   T   T   T
  0.2499984326223199  0.7500015093827130  0.0557922949150012   F   F   F
  0.0843742906547789  0.9187762535270184  0.1751597697112491   T   T   T
  0.4171743349504665  0.5819729728403211  0.3083329546567473   T   T   T
  0.2499498713060112  0.7497403064625597  0.4139084945946242   T   T   T
  0.2499984376190483  0.5000015423780582  0.0557922949150012   F   F   F
  0.0839595761906837  0.6663542116167265  0.1736228965311319   T   T   T
  0.4175495684299154  0.8320502336844784  0.2962737081448885   T   T   T
  0.2485128955681273  0.5004222891134432  0.4271366746576220   T   T   T
  0.4999984376190483  0.5000015423780582  0.0557922949150012   F   F   F
  0.8314251856255021  0.6658773758399470  0.1750843987302888   T   T   T
  0.6659849575769461  0.8323599463572262  0.2976524823471352   T   T   T
  0.5012683742298404  0.5009305813728138  0.4397139593000171   T   T   T
  0.4999984326223199  0.7500015093827130  0.0557922949150012   F   F   F
  0.8330063878746529  0.9171176625219358  0.1752852254579832   T   T   T
  0.6633089680996193  0.5807124985793271  0.3008617527741857   T   T   T
  0.4999792671848440  0.7497618599313287  0.4228933178070023   T   T   T
  0.7499984106242152  0.7500015093827130  0.0557922949150012   F   F   F
  0.5833557020174658  0.9158315460295084  0.1776338947725192   T   T   T
  0.9155257306508776  0.5820148421209744  0.2914940752871660   T   T   T
  0.7490688581955726  0.7490242047303635  0.4168946440949471   T   T   T
  0.7499983926190481  0.5000015423780582  0.0557922949150012   F   F   F
  0.5818230520245289  0.6648270201788260  0.1810504529524226   T   T   T
  0.9157763375849989  0.8338776059443321  0.2917761380655955   T   T   T
  0.7498375872991988  0.4996112542418166  0.4176097039615925   T   T   T
  0.3547358362261254  0.3996711770788541  0.5223225488792042   T   T   T
  0.3987460002632573  0.3528062433612556  0.5231238827248651   T   T   T
 
  0.00000000E+00  0.00000000E+00  0.00000000E+00
  0.00000000E+00  0.00000000E+00  0.00000000E+00
  0.00000000E+00  0.00000000E+00  0.00000000E+00
  0.00000000E+00  0.00000000E+00  0.00000000E+00
  0.00000000E+00  0.00000000E+00  0.00000000E+00
  0.00000000E+00  0.00000000E+00  0.00000000E+00
  0.00000000E+00  0.00000000E+00  0.00000000E+00
  0.00000000E+00  0.00000000E+00  0.00000000E+00
  0.00000000E+00  0.00000000E+00  0.00000000E+00
  0.00000000E+00  0.00000000E+00  0.00000000E+00
  0.00000000E+00  0.00000000E+00  0.00000000E+00
  0.00000000E+00  0.00000000E+00  0.00000000E+00
  0.00000000E+00  0.00000000E+00  0.00000000E+00
  0.00000000E+00  0.00000000E+00  0.00000000E+00
  0.00000000E+00  0.00000000E+00  0.00000000E+00
  0.00000000E+00  0.00000000E+00  0.00000000E+00
  0.00000000E+00  0.00000000E+00  0.00000000E+00
  0.00000000E+00  0.00000000E+00  0.00000000E+00
  0.00000000E+00  0.00000000E+00  0.00000000E+00
  0.00000000E+00  0.00000000E+00  0.00000000E+00
  0.00000000E+00  0.00000000E+00  0.00000000E+00
  0.00000000E+00  0.00000000E+00  0.00000000E+00
  0.00000000E+00  0.00000000E+00  0.00000000E+00
  0.00000000E+00  0.00000000E+00  0.00000000E+00
  0.00000000E+00  0.00000000E+00  0.00000000E+00
  0.00000000E+00  0.00000000E+00  0.00000000E+00
  0.00000000E+00  0.00000000E+00  0.00000000E+00
  0.00000000E+00  0.00000000E+00  0.00000000E+00
  0.00000000E+00  0.00000000E+00  0.00000000E+00
  0.00000000E+00  0.00000000E+00  0.00000000E+00
  0.00000000E+00  0.00000000E+00  0.00000000E+00
  0.00000000E+00  0.00000000E+00  0.00000000E+00
  0.00000000E+00  0.00000000E+00  0.00000000E+00
  0.00000000E+00  0.00000000E+00  0.00000000E+00
  0.00000000E+00  0.00000000E+00  0.00000000E+00
  0.00000000E+00  0.00000000E+00  0.00000000E+00
  0.00000000E+00  0.00000000E+00  0.00000000E+00
  0.00000000E+00  0.00000000E+00  0.00000000E+00
  0.00000000E+00  0.00000000E+00  0.00000000E+00
  0.00000000E+00  0.00000000E+00  0.00000000E+00
  0.00000000E+00  0.00000000E+00  0.00000000E+00
  0.00000000E+00  0.00000000E+00  0.00000000E+00
  0.00000000E+00  0.00000000E+00  0.00000000E+00
  0.00000000E+00  0.00000000E+00  0.00000000E+00
  0.00000000E+00  0.00000000E+00  0.00000000E+00
  0.00000000E+00  0.00000000E+00  0.00000000E+00
  0.00000000E+00  0.00000000E+00  0.00000000E+00
  0.00000000E+00  0.00000000E+00  0.00000000E+00
  0.00000000E+00  0.00000000E+00  0.00000000E+00
  0.00000000E+00  0.00000000E+00  0.00000000E+00
  0.00000000E+00  0.00000000E+00  0.00000000E+00
  0.00000000E+00  0.00000000E+00  0.00000000E+00
  0.00000000E+00  0.00000000E+00  0.00000000E+00
  0.00000000E+00  0.00000000E+00  0.00000000E+00
  0.00000000E+00  0.00000000E+00  0.00000000E+00
  0.00000000E+00  0.00000000E+00  0.00000000E+00
  0.00000000E+00  0.00000000E+00  0.00000000E+00
  0.00000000E+00  0.00000000E+00  0.00000000E+00
  0.00000000E+00  0.00000000E+00  0.00000000E+00
  0.00000000E+00  0.00000000E+00  0.00000000E+00
  0.00000000E+00  0.00000000E+00  0.00000000E+00
  0.00000000E+00  0.00000000E+00  0.00000000E+00
  0.00000000E+00  0.00000000E+00  0.00000000E+00
  0.00000000E+00  0.00000000E+00  0.00000000E+00
  0.00000000E+00  0.00000000E+00  0.00000000E+00
  0.00000000E+00  0.00000000E+00  0.00000000E+00
