Pt111                                   
   1.00000000000000     
    10.5600000059999992    0.0000000000000000    0.0000000000000000
     5.2800002098030001    9.1452286273900008    0.0000000000000000
     0.0000000000000000    0.0000000000000000   22.0000000000000000
   Pt   H 
    80     1
Selective dynamics
Direct
  0.7815589807537222  0.8723747003303188  0.3359182344888652   T   T   T
  0.0323206737586901  0.8719961775324805  0.3347691390754051   T   T   T
  0.0322049654123546  0.6219554904790883  0.3351780318235456   T   T   T
  0.7875278653567364  0.8676044321556162  0.0065254399863619   F   F   F
  0.0375533410712592  0.8673873191253278  0.0067267300590927   F   F   F
  0.0376057549980970  0.6174349873209763  0.0069589563136390   F   F   F
  0.6196212043850693  0.2015529455851421  0.1175274625727241   F   F   F
  0.3697042875028700  0.9514807390204467  0.1177294594318212   F   F   F
  0.0315706955025021  0.3725993964410890  0.3349017470009485   T   T   T
  0.0376593768914049  0.3673714897774900  0.0069377762863638   F   F   F
  0.8696721243449659  0.2014751290395935  0.1176398843909112   F   F   F
  0.9510767582002444  0.5365099123555765  0.2262939564403510   T   T   T
  0.2819245598428779  0.1221462180997079  0.3343092953354443   T   T   T
  0.5309330131530601  0.6218449707769409  0.3413086787421591   T   T   T
  0.2826325687468696  0.3737726527362426  0.3379230339781998   T   T   T
  0.2875793840366683  0.1172925608975319  0.0069349893545478   F   F   F
  0.5377814444854110  0.6173821769846057  0.0066582506045449   F   F   F
  0.2876739959956183  0.3673217993740536  0.0071165380181810   F   F   F
  0.6196319221651194  0.9516216279858867  0.1175727031681788   F   F   F
  0.7011094813640995  0.7866556107048197  0.2267064492438990   T   T   T
  0.8697508569320718  0.7016874690459645  0.1176837928590899   F   F   F
  0.6198103697673645  0.4515808813058229  0.1176794921772739   F   F   F
  0.2826693248910246  0.8699278276481479  0.3370062705843608   T   T   T
  0.2875920397542089  0.8673775481612935  0.0066964500636360   F   F   F
  0.6198275405415856  0.7016089619435988  0.1176180977227261   F   F   F
  0.2011610741995113  0.0364514147028743  0.2263167386142229   T   T   T
  0.8630242548573008  0.9576440705325950  0.4459508576794349   T   T   T
  0.1128327763328798  0.4575369115159020  0.4471473344541437   T   T   T
  0.1132820899419613  0.9568858584626696  0.4464623306400668   T   T   T
  0.8628963365126623  0.4576088067073059  0.4461139763116506   T   T   T
  0.3632264936158691  0.9568340412737371  0.4458300301967100   T   T   T
  0.8630667942156549  0.2073178699890050  0.4455743181472513   T   T   T
  0.1130897209888388  0.2071862347522782  0.4437704988848097   T   T   T
  0.6127911752815862  0.9576062945051262  0.4458388843618337   T   T   T
  0.8630140521535594  0.7074184166717501  0.4461991642505154   T   T   T
  0.3629873760583919  0.2072589651083447  0.4458176644590495   T   T   T
  0.3619736391444732  0.7096583842065769  0.4581778771673797   T   T   T
  0.6165494516562049  0.4554709424165750  0.4592328322846271   T   T   T
  0.1133100736349277  0.7070870820895081  0.4459032796239342   T   T   T
  0.6128335911258347  0.2076610820168838  0.4454842183030223   T   T   T
  0.5307759056366876  0.3737578744053636  0.3415061163128712   T   T   T
  0.5376393909505879  0.3674587181708375  0.0067153063636383   F   F   F
  0.5311940488569107  0.1231568887049761  0.3343074725249338   T   T   T
  0.5375965631724284  0.1174310412189783  0.0065958484954578   F   F   F
  0.8698019928357397  0.4515219446600582  0.1178267701909093   F   F   F
  0.1196537203573484  0.4516327147830737  0.1180421517409087   F   F   F
  0.0315925736999390  0.1221020661857040  0.3344631847990343   T   T   T
  0.0374956182886308  0.1173493035467459  0.0067709917772731   F   F   F
  0.1195728888671397  0.9515324278430342  0.1177580426318201   F   F   F
  0.3614872242368605  0.4554454612934791  0.4595011903623032   T   T   T
  0.4506003050549268  0.5369689316758723  0.2346149131589570   T   T   T
  0.6130002842178328  0.7071416252320049  0.4455613519333639   T   T   T
  0.3697147630233317  0.2014785881220647  0.1179421147090878   F   F   F
  0.1194864749591460  0.2015698334516216  0.1178910631136389   F   F   F
  0.9510387218501677  0.7867103263135107  0.2268469599761644   T   T   T
  0.7811777145321841  0.6218938916080532  0.3347594348339911   T   T   T
  0.2824654487832419  0.6219098075018437  0.3417954745631420   T   T   T
  0.7877450438485667  0.6174286127072435  0.0066710570909123   F   F   F
  0.2876360288916615  0.6174004917700344  0.0070093983590880   F   F   F
  0.3699203563969675  0.7015685265411591  0.1178060881136389   F   F   F
  0.3698860494747009  0.4515431897713569  0.1179680683681852   F   F   F
  0.2011785973318609  0.2872693961473516  0.2267400310596841   T   T   T
  0.7790340510057518  0.3736147750750902  0.3368346746512998   T   T   T
  0.7876968600880829  0.3673289306774521  0.0066823488499992   F   F   F
  0.9509758911535187  0.0370735537380540  0.2260021940183279   T   T   T
  0.4509421528717752  0.7858188504632224  0.2268619708677875   T   T   T
  0.6998074660854741  0.5368466355517469  0.2268926937547420   T   T   T
  0.2018545267521432  0.7858387738901840  0.2270620979469555   T   T   T
  0.4508254834625021  0.0368761700490055  0.2258010197952913   T   T   T
  0.1196666849836419  0.7017138224494559  0.1179425857818188   F   F   F
  0.7010420762594904  0.0367332315647317  0.2263032693790450   T   T   T
  0.7811240946172333  0.1232397501561451  0.3343160171576045   T   T   T
  0.5311883822857268  0.8719211163225253  0.3343838790041076   T   T   T
  0.7875789281410306  0.1174827426054890  0.0064821487818207   F   F   F
  0.5376000262375982  0.8674459689985952  0.0066132856227270   F   F   F
  0.2017372096267351  0.5368567762693957  0.2277898560359901   T   T   T
  0.9503087291849042  0.2871961112689405  0.2264550758366184   T   T   T
  0.8696606814540999  0.9515648548836282  0.1175894507045427   F   F   F
  0.6996188247382307  0.2879048546721350  0.2266365862517858   T   T   T
  0.4507436111811955  0.2879552317480645  0.2272510674764305   T   T   T
  0.4485200374685832  0.5375016694475221  0.5058383126693968   T   T   T
 
  0.00000000E+00  0.00000000E+00  0.00000000E+00
  0.00000000E+00  0.00000000E+00  0.00000000E+00
  0.00000000E+00  0.00000000E+00  0.00000000E+00
  0.00000000E+00  0.00000000E+00  0.00000000E+00
  0.00000000E+00  0.00000000E+00  0.00000000E+00
  0.00000000E+00  0.00000000E+00  0.00000000E+00
  0.00000000E+00  0.00000000E+00  0.00000000E+00
  0.00000000E+00  0.00000000E+00  0.00000000E+00
  0.00000000E+00  0.00000000E+00  0.00000000E+00
  0.00000000E+00  0.00000000E+00  0.00000000E+00
  0.00000000E+00  0.00000000E+00  0.00000000E+00
  0.00000000E+00  0.00000000E+00  0.00000000E+00
  0.00000000E+00  0.00000000E+00  0.00000000E+00
  0.00000000E+00  0.00000000E+00  0.00000000E+00
  0.00000000E+00  0.00000000E+00  0.00000000E+00
  0.00000000E+00  0.00000000E+00  0.00000000E+00
  0.00000000E+00  0.00000000E+00  0.00000000E+00
  0.00000000E+00  0.00000000E+00  0.00000000E+00
  0.00000000E+00  0.00000000E+00  0.00000000E+00
  0.00000000E+00  0.00000000E+00  0.00000000E+00
  0.00000000E+00  0.00000000E+00  0.00000000E+00
  0.00000000E+00  0.00000000E+00  0.00000000E+00
  0.00000000E+00  0.00000000E+00  0.00000000E+00
  0.00000000E+00  0.00000000E+00  0.00000000E+00
  0.00000000E+00  0.00000000E+00  0.00000000E+00
  0.00000000E+00  0.00000000E+00  0.00000000E+00
  0.00000000E+00  0.00000000E+00  0.00000000E+00
  0.00000000E+00  0.00000000E+00  0.00000000E+00
  0.00000000E+00  0.00000000E+00  0.00000000E+00
  0.00000000E+00  0.00000000E+00  0.00000000E+00
  0.00000000E+00  0.00000000E+00  0.00000000E+00
  0.00000000E+00  0.00000000E+00  0.00000000E+00
  0.00000000E+00  0.00000000E+00  0.00000000E+00
  0.00000000E+00  0.00000000E+00  0.00000000E+00
  0.00000000E+00  0.00000000E+00  0.00000000E+00
  0.00000000E+00  0.00000000E+00  0.00000000E+00
  0.00000000E+00  0.00000000E+00  0.00000000E+00
  0.00000000E+00  0.00000000E+00  0.00000000E+00
  0.00000000E+00  0.00000000E+00  0.00000000E+00
  0.00000000E+00  0.00000000E+00  0.00000000E+00
  0.00000000E+00  0.00000000E+00  0.00000000E+00
  0.00000000E+00  0.00000000E+00  0.00000000E+00
  0.00000000E+00  0.00000000E+00  0.00000000E+00
  0.00000000E+00  0.00000000E+00  0.00000000E+00
  0.00000000E+00  0.00000000E+00  0.00000000E+00
  0.00000000E+00  0.00000000E+00  0.00000000E+00
  0.00000000E+00  0.00000000E+00  0.00000000E+00
  0.00000000E+00  0.00000000E+00  0.00000000E+00
  0.00000000E+00  0.00000000E+00  0.00000000E+00
  0.00000000E+00  0.00000000E+00  0.00000000E+00
  0.00000000E+00  0.00000000E+00  0.00000000E+00
  0.00000000E+00  0.00000000E+00  0.00000000E+00
  0.00000000E+00  0.00000000E+00  0.00000000E+00
  0.00000000E+00  0.00000000E+00  0.00000000E+00
  0.00000000E+00  0.00000000E+00  0.00000000E+00
  0.00000000E+00  0.00000000E+00  0.00000000E+00
  0.00000000E+00  0.00000000E+00  0.00000000E+00
  0.00000000E+00  0.00000000E+00  0.00000000E+00
  0.00000000E+00  0.00000000E+00  0.00000000E+00
  0.00000000E+00  0.00000000E+00  0.00000000E+00
  0.00000000E+00  0.00000000E+00  0.00000000E+00
  0.00000000E+00  0.00000000E+00  0.00000000E+00
  0.00000000E+00  0.00000000E+00  0.00000000E+00
  0.00000000E+00  0.00000000E+00  0.00000000E+00
  0.00000000E+00  0.00000000E+00  0.00000000E+00
  0.00000000E+00  0.00000000E+00  0.00000000E+00
  0.00000000E+00  0.00000000E+00  0.00000000E+00
  0.00000000E+00  0.00000000E+00  0.00000000E+00
  0.00000000E+00  0.00000000E+00  0.00000000E+00
  0.00000000E+00  0.00000000E+00  0.00000000E+00
  0.00000000E+00  0.00000000E+00  0.00000000E+00
  0.00000000E+00  0.00000000E+00  0.00000000E+00
  0.00000000E+00  0.00000000E+00  0.00000000E+00
  0.00000000E+00  0.00000000E+00  0.00000000E+00
  0.00000000E+00  0.00000000E+00  0.00000000E+00
  0.00000000E+00  0.00000000E+00  0.00000000E+00
  0.00000000E+00  0.00000000E+00  0.00000000E+00
  0.00000000E+00  0.00000000E+00  0.00000000E+00
  0.00000000E+00  0.00000000E+00  0.00000000E+00
  0.00000000E+00  0.00000000E+00  0.00000000E+00
  0.00000000E+00  0.00000000E+00  0.00000000E+00
