Pt111                                   
   1.00000000000000     
    10.5600000059999992    0.0000000000000000    0.0000000000000000
     5.2800002098030001    9.1452286273900008    0.0000000000000000
     0.0000000000000000    0.0000000000000000   22.0000000000000000
   Pt   H 
    80     1
Selective dynamics
Direct
  0.7815589807537249  0.8723747003303175  0.3359182344888618   T   T   T
  0.0323206737586932  0.8719961775324789  0.3347691390754042   T   T   T
  0.0322049654123567  0.6219554904790854  0.3351780318235487   T   T   T
  0.7875278653567364  0.8676044321556162  0.0065254399863619   F   F   F
  0.0375533410712592  0.8673873191253278  0.0067267300590927   F   F   F
  0.0376057549980970  0.6174349873209763  0.0069589563136390   F   F   F
  0.6196212043850693  0.2015529455851421  0.1175274625727241   F   F   F
  0.3697042875028700  0.9514807390204467  0.1177294594318212   F   F   F
  0.0315706955025046  0.3725993964410864  0.3349017470009517   T   T   T
  0.0376593768914049  0.3673714897774900  0.0069377762863638   F   F   F
  0.8696721243449659  0.2014751290395935  0.1176398843909112   F   F   F
  0.9510767582002460  0.5365099123555799  0.2262939564403486   T   T   T
  0.2819245598428773  0.1221462180997070  0.3343092953354408   T   T   T
  0.5309330131530635  0.6218449707769438  0.3413086787421586   T   T   T
  0.2826325687468664  0.3737726527362397  0.3379230339781974   T   T   T
  0.2875793840366683  0.1172925608975319  0.0069349893545478   F   F   F
  0.5377814444854110  0.6173821769846057  0.0066582506045449   F   F   F
  0.2876739959956183  0.3673217993740536  0.0071165380181810   F   F   F
  0.6196319221651194  0.9516216279858867  0.1175727031681788   F   F   F
  0.7011094813640986  0.7866556107048178  0.2267064492439005   T   T   T
  0.8697508569320718  0.7016874690459645  0.1176837928590899   F   F   F
  0.6198103697673645  0.4515808813058229  0.1176794921772739   F   F   F
  0.2826693248910268  0.8699278276481464  0.3370062705843634   T   T   T
  0.2875920397542089  0.8673775481612935  0.0066964500636360   F   F   F
  0.6198275405415856  0.7016089619435988  0.1176180977227261   F   F   F
  0.2011610741995144  0.0364514147028761  0.2263167386142233   T   T   T
  0.8630242548572987  0.9576440705325964  0.4459508576794314   T   T   T
  0.1128327763328778  0.4575369115158985  0.4471473344541429   T   T   T
  0.1132820899419643  0.9568858584626680  0.4464623306400700   T   T   T
  0.8628963365126622  0.4576088067073027  0.4461139763116533   T   T   T
  0.3632264936158667  0.9568340412737338  0.4458300301967128   T   T   T
  0.8630667942156525  0.2073178699890023  0.4455743181472485   T   T   T
  0.1130897209888416  0.2071862347522799  0.4437704988848066   T   T   T
  0.6127911752815894  0.9576062945051235  0.4458388843618369   T   T   T
  0.8630140521535583  0.7074184166717532  0.4461991642505127   T   T   T
  0.3629873760583897  0.2072589651083426  0.4458176644590462   T   T   T
  0.3619736391444726  0.7096583842065743  0.4581778771673765   T   T   T
  0.6165494516562054  0.4554709424165747  0.4592328322846260   T   T   T
  0.1133100736349289  0.7070870820895081  0.4459032796239329   T   T   T
  0.6128335911258374  0.2076610820168870  0.4454842183030194   T   T   T
  0.5307759056366874  0.3737578744053638  0.3415061163128743   T   T   T
  0.5376393909505879  0.3674587181708375  0.0067153063636383   F   F   F
  0.5311940488569118  0.1231568887049751  0.3343074725249321   T   T   T
  0.5375965631724284  0.1174310412189783  0.0065958484954578   F   F   F
  0.8698019928357397  0.4515219446600582  0.1178267701909093   F   F   F
  0.1196537203573484  0.4516327147830737  0.1180421517409087   F   F   F
  0.0315925736999364  0.1221020661857016  0.3344631847990333   T   T   T
  0.0374956182886308  0.1173493035467459  0.0067709917772731   F   F   F
  0.1195728888671397  0.9515324278430342  0.1177580426318201   F   F   F
  0.3614872242368626  0.4554454612934796  0.4595011903623033   T   T   T
  0.4506003050549244  0.5369689316758729  0.2346149131589578   T   T   T
  0.6130002842178348  0.7071416252320045  0.4455613519333658   T   T   T
  0.3697147630233317  0.2014785881220647  0.1179421147090878   F   F   F
  0.1194864749591460  0.2015698334516216  0.1178910631136389   F   F   F
  0.9510387218501689  0.7867103263135116  0.2268469599761657   T   T   T
  0.7811777145321828  0.6218938916080515  0.3347594348339877   T   T   T
  0.2824654487832388  0.6219098075018413  0.3417954745631447   T   T   T
  0.7877450438485667  0.6174286127072435  0.0066710570909123   F   F   F
  0.2876360288916615  0.6174004917700344  0.0070093983590880   F   F   F
  0.3699203563969675  0.7015685265411591  0.1178060881136389   F   F   F
  0.3698860494747009  0.4515431897713569  0.1179680683681852   F   F   F
  0.2011785973318584  0.2872693961473529  0.2267400310596872   T   T   T
  0.7790340510057526  0.3736147750750929  0.3368346746513023   T   T   T
  0.7876968600880829  0.3673289306774521  0.0066823488499992   F   F   F
  0.9509758911535190  0.0370735537380551  0.2260021940183282   T   T   T
  0.4509421528717761  0.7858188504632231  0.2268619708677880   T   T   T
  0.6998074660854769  0.5368466355517437  0.2268926937547424   T   T   T
  0.2018545267521462  0.7858387738901815  0.2270620979469556   T   T   T
  0.4508254834625003  0.0368761700490086  0.2258010197952936   T   T   T
  0.1196666849836419  0.7017138224494559  0.1179425857818188   F   F   F
  0.7010420762594874  0.0367332315647296  0.2263032693790463   T   T   T
  0.7811240946172340  0.1232397501561435  0.3343160171576023   T   T   T
  0.5311883822857275  0.8719211163225279  0.3343838790041050   T   T   T
  0.7875789281410306  0.1174827426054890  0.0064821487818207   F   F   F
  0.5376000262375982  0.8674459689985952  0.0066132856227270   F   F   F
  0.2017372096267352  0.5368567762693954  0.2277898560359905   T   T   T
  0.9503087291849023  0.2871961112689376  0.2264550758366179   T   T   T
  0.8696606814540999  0.9515648548836282  0.1175894507045427   F   F   F
  0.6996188247382309  0.2879048546721358  0.2266365862517848   T   T   T
  0.4507436111811987  0.2879552317480656  0.2272510674764325   T   T   T
  0.4485200374685812  0.5375016694475223  0.5058383126693973   T   T   T
 
  0.00000000E+00  0.00000000E+00  0.00000000E+00
  0.00000000E+00  0.00000000E+00  0.00000000E+00
  0.00000000E+00  0.00000000E+00  0.00000000E+00
  0.00000000E+00  0.00000000E+00  0.00000000E+00
  0.00000000E+00  0.00000000E+00  0.00000000E+00
  0.00000000E+00  0.00000000E+00  0.00000000E+00
  0.00000000E+00  0.00000000E+00  0.00000000E+00
  0.00000000E+00  0.00000000E+00  0.00000000E+00
  0.00000000E+00  0.00000000E+00  0.00000000E+00
  0.00000000E+00  0.00000000E+00  0.00000000E+00
  0.00000000E+00  0.00000000E+00  0.00000000E+00
  0.00000000E+00  0.00000000E+00  0.00000000E+00
  0.00000000E+00  0.00000000E+00  0.00000000E+00
  0.00000000E+00  0.00000000E+00  0.00000000E+00
  0.00000000E+00  0.00000000E+00  0.00000000E+00
  0.00000000E+00  0.00000000E+00  0.00000000E+00
  0.00000000E+00  0.00000000E+00  0.00000000E+00
  0.00000000E+00  0.00000000E+00  0.00000000E+00
  0.00000000E+00  0.00000000E+00  0.00000000E+00
  0.00000000E+00  0.00000000E+00  0.00000000E+00
  0.00000000E+00  0.00000000E+00  0.00000000E+00
  0.00000000E+00  0.00000000E+00  0.00000000E+00
  0.00000000E+00  0.00000000E+00  0.00000000E+00
  0.00000000E+00  0.00000000E+00  0.00000000E+00
  0.00000000E+00  0.00000000E+00  0.00000000E+00
  0.00000000E+00  0.00000000E+00  0.00000000E+00
  0.00000000E+00  0.00000000E+00  0.00000000E+00
  0.00000000E+00  0.00000000E+00  0.00000000E+00
  0.00000000E+00  0.00000000E+00  0.00000000E+00
  0.00000000E+00  0.00000000E+00  0.00000000E+00
  0.00000000E+00  0.00000000E+00  0.00000000E+00
  0.00000000E+00  0.00000000E+00  0.00000000E+00
  0.00000000E+00  0.00000000E+00  0.00000000E+00
  0.00000000E+00  0.00000000E+00  0.00000000E+00
  0.00000000E+00  0.00000000E+00  0.00000000E+00
  0.00000000E+00  0.00000000E+00  0.00000000E+00
  0.00000000E+00  0.00000000E+00  0.00000000E+00
  0.00000000E+00  0.00000000E+00  0.00000000E+00
  0.00000000E+00  0.00000000E+00  0.00000000E+00
  0.00000000E+00  0.00000000E+00  0.00000000E+00
  0.00000000E+00  0.00000000E+00  0.00000000E+00
  0.00000000E+00  0.00000000E+00  0.00000000E+00
  0.00000000E+00  0.00000000E+00  0.00000000E+00
  0.00000000E+00  0.00000000E+00  0.00000000E+00
  0.00000000E+00  0.00000000E+00  0.00000000E+00
  0.00000000E+00  0.00000000E+00  0.00000000E+00
  0.00000000E+00  0.00000000E+00  0.00000000E+00
  0.00000000E+00  0.00000000E+00  0.00000000E+00
  0.00000000E+00  0.00000000E+00  0.00000000E+00
  0.00000000E+00  0.00000000E+00  0.00000000E+00
  0.00000000E+00  0.00000000E+00  0.00000000E+00
  0.00000000E+00  0.00000000E+00  0.00000000E+00
  0.00000000E+00  0.00000000E+00  0.00000000E+00
  0.00000000E+00  0.00000000E+00  0.00000000E+00
  0.00000000E+00  0.00000000E+00  0.00000000E+00
  0.00000000E+00  0.00000000E+00  0.00000000E+00
  0.00000000E+00  0.00000000E+00  0.00000000E+00
  0.00000000E+00  0.00000000E+00  0.00000000E+00
  0.00000000E+00  0.00000000E+00  0.00000000E+00
  0.00000000E+00  0.00000000E+00  0.00000000E+00
  0.00000000E+00  0.00000000E+00  0.00000000E+00
  0.00000000E+00  0.00000000E+00  0.00000000E+00
  0.00000000E+00  0.00000000E+00  0.00000000E+00
  0.00000000E+00  0.00000000E+00  0.00000000E+00
  0.00000000E+00  0.00000000E+00  0.00000000E+00
  0.00000000E+00  0.00000000E+00  0.00000000E+00
  0.00000000E+00  0.00000000E+00  0.00000000E+00
  0.00000000E+00  0.00000000E+00  0.00000000E+00
  0.00000000E+00  0.00000000E+00  0.00000000E+00
  0.00000000E+00  0.00000000E+00  0.00000000E+00
  0.00000000E+00  0.00000000E+00  0.00000000E+00
  0.00000000E+00  0.00000000E+00  0.00000000E+00
  0.00000000E+00  0.00000000E+00  0.00000000E+00
  0.00000000E+00  0.00000000E+00  0.00000000E+00
  0.00000000E+00  0.00000000E+00  0.00000000E+00
  0.00000000E+00  0.00000000E+00  0.00000000E+00
  0.00000000E+00  0.00000000E+00  0.00000000E+00
  0.00000000E+00  0.00000000E+00  0.00000000E+00
  0.00000000E+00  0.00000000E+00  0.00000000E+00
  0.00000000E+00  0.00000000E+00  0.00000000E+00
  0.00000000E+00  0.00000000E+00  0.00000000E+00
