Pt   H                                  
   1.00000000000000     
    10.5600004195999997    0.0000000000000000    0.0000000000000000
    -5.2800002097999998    9.1452286273999999    0.0000000000000000
     0.0000000000000000    0.0000000000000000   20.0000000000000000
   Pt   H 
    64     2
Selective dynamics
Direct
  0.9999984446215961  0.0000015553793773  0.0557922949150012   F   F   F
  0.3335505426993717  0.1675645269144045  0.1789289067829178   T   T   T
  0.1672124942643013  0.3333058500143899  0.3033825788123889   T   T   T
 -0.0003093312275791  0.0001166889233243  0.4174922368360502   T   T   T
  0.9999984416169312  0.2500015483757210  0.0557922949150012   F   F   F
  0.3334912576568185  0.4164464208039944  0.1833374066640206   T   T   T
  0.1677853882812065  0.0849432141604272  0.2990834176653008   T   T   T
  0.9995388757901272  0.2500720152362516  0.4205487890812464   T   T   T
  0.2499984416169312  0.2500015483757210  0.0557922949150012   F   F   F
  0.0843608802335678  0.4161634124826623  0.1783136089392914   T   T   T
  0.4167710449929796  0.0836583618545514  0.2967557521812300   T   T   T
  0.2490377246908475  0.2495864868970972  0.4274512256717031   T   T   T
  0.2499984446215961  0.0000015553793773  0.0557922949150012   F   F   F
  0.0845297165206343  0.1675057442137930  0.1791305395605907   T   T   T
  0.4162098177090989  0.3338039316704995  0.3034983333736612   T   T   T
  0.2498092222549866  0.0000847824763193  0.4184809911917337   T   T   T
  0.4999984446215961  0.0000015553793773  0.0557922949150012   F   F   F
  0.8338295630364165  0.1666102055712891  0.1772775520531795   T   T   T
  0.6663362726192547  0.3332349331866210  0.2965991354025762   T   T   T
  0.4998382109644371  1.0001311736429459  0.4182366372171091   T   T   T
  0.4999984296188273  0.2500015483757210  0.0557922949150012   F   F   F
  0.8331390807035981  0.4160021619990272  0.1761390865858331   T   T   T
  0.6666390648652066  0.0833594707052051  0.2967762783284256   T   T   T
  0.5000244789350132  0.2499880734178783  0.4191575945327237   T   T   T
  0.7499984076207227  0.2500015483757210  0.0557922949150012   F   F   F
  0.5823578770105012  0.4163885918117373  0.1788027296345270   T   T   T
  0.9168436996254480  0.0836233948788230  0.2969847201499380   T   T   T
  0.7499122480536595  0.2502064849785500  0.4182360039369686   T   T   T
  0.7499984216197078  0.0000015553793773  0.0557922949150012   F   F   F
  0.5831912236803938  0.1667240102674077  0.1769319767333314   T   T   T
  0.9170600993976229  0.3329890005553923  0.2966557775546248   T   T   T
  0.7497941845611572  1.0002680788285534  0.4186620490372980   T   T   T
  0.9999984376190483  0.5000015423780582  0.0557922949150012   F   F   F
  0.3338078677062149  0.6656250359748324  0.1783110799792585   T   T   T
  0.1673144205871162  0.8338480318966748  0.2940122387400575   T   T   T
  0.9998093433450050  0.5002793150528809  0.4166135381780691   T   T   T
  0.9999984326223199  0.7500015093827130  0.0557922949150012   F   F   F
  0.3339497058262153  0.9168343762563003  0.1762417068706804   T   T   T
  0.1673929284328272  0.5826663834610157  0.2967520454334014   T   T   T
  0.9997814586676526  0.7502511038901887  0.4132194335904108   T   T   T
  0.2499984326223199  0.7500015093827130  0.0557922949150012   F   F   F
  0.0839982375458633  0.9175993795494450  0.1758449206975669   T   T   T
  0.4166871070903776  0.5828272250504274  0.3033205748259842   T   T   T
  0.2497620263526696  0.7502402511621218  0.4167792449377835   T   T   T
  0.2499984376190483  0.5000015423780582  0.0557922949150012   F   F   F
  0.0837822868095010  0.6662144973968366  0.1751329681424786   T   T   T
  0.4170217465072799  0.8329511631341170  0.2967227751151729   T   T   T
  0.2493498028319023  0.5006456335633672  0.4244112678479571   T   T   T
  0.4999984376190483  0.5000015423780582  0.0557922949150012   F   F   F
  0.8323445879055242  0.6659584782041913  0.1758354957469837   T   T   T
  0.6663994215408684  0.8331538829270442  0.2971056836277671   T   T   T
  0.5003381161960043  0.5009241234911710  0.4271764609803783   T   T   T
  0.4999984326223199  0.7500015093827130  0.0557922949150012   F   F   F
  0.8331698119419272  0.9167460593194091  0.1761137179840261   T   T   T
  0.6650839904380020  0.5822959290424432  0.2990274086727457   T   T   T
  0.4999554467401147  0.7504992900311196  0.4206015093454896   T   T   T
  0.7499984106242152  0.7500015093827130  0.0557922949150012   F   F   F
  0.5833159421835707  0.9161001673815545  0.1773191679369785   T   T   T
  0.9162045212382893  0.5827249256483874  0.2939131792389082   T   T   T
  0.7499279268390413  0.7503545791232817  0.4177866168868550   T   T   T
  0.7499983926190481  0.5000015423780582  0.0557922949150012   F   F   F
  0.5824395301440864  0.6654426875528044  0.1791779141898188   T   T   T
  0.9163003715015947  0.8336652244233043  0.2938345712905445   T   T   T
  0.7499192549661021  0.5002142313728499  0.4182270586100195   T   T   T
  0.3560947316981863  0.3970739805681141  0.5358544337471184   T   T   T
  0.3950970832178933  0.3521293683499273  0.5365564448614160   T   T   T
 
  0.00000000E+00  0.00000000E+00  0.00000000E+00
  0.00000000E+00  0.00000000E+00  0.00000000E+00
  0.00000000E+00  0.00000000E+00  0.00000000E+00
  0.00000000E+00  0.00000000E+00  0.00000000E+00
  0.00000000E+00  0.00000000E+00  0.00000000E+00
  0.00000000E+00  0.00000000E+00  0.00000000E+00
  0.00000000E+00  0.00000000E+00  0.00000000E+00
  0.00000000E+00  0.00000000E+00  0.00000000E+00
  0.00000000E+00  0.00000000E+00  0.00000000E+00
  0.00000000E+00  0.00000000E+00  0.00000000E+00
  0.00000000E+00  0.00000000E+00  0.00000000E+00
  0.00000000E+00  0.00000000E+00  0.00000000E+00
  0.00000000E+00  0.00000000E+00  0.00000000E+00
  0.00000000E+00  0.00000000E+00  0.00000000E+00
  0.00000000E+00  0.00000000E+00  0.00000000E+00
  0.00000000E+00  0.00000000E+00  0.00000000E+00
  0.00000000E+00  0.00000000E+00  0.00000000E+00
  0.00000000E+00  0.00000000E+00  0.00000000E+00
  0.00000000E+00  0.00000000E+00  0.00000000E+00
  0.00000000E+00  0.00000000E+00  0.00000000E+00
  0.00000000E+00  0.00000000E+00  0.00000000E+00
  0.00000000E+00  0.00000000E+00  0.00000000E+00
  0.00000000E+00  0.00000000E+00  0.00000000E+00
  0.00000000E+00  0.00000000E+00  0.00000000E+00
  0.00000000E+00  0.00000000E+00  0.00000000E+00
  0.00000000E+00  0.00000000E+00  0.00000000E+00
  0.00000000E+00  0.00000000E+00  0.00000000E+00
  0.00000000E+00  0.00000000E+00  0.00000000E+00
  0.00000000E+00  0.00000000E+00  0.00000000E+00
  0.00000000E+00  0.00000000E+00  0.00000000E+00
  0.00000000E+00  0.00000000E+00  0.00000000E+00
  0.00000000E+00  0.00000000E+00  0.00000000E+00
  0.00000000E+00  0.00000000E+00  0.00000000E+00
  0.00000000E+00  0.00000000E+00  0.00000000E+00
  0.00000000E+00  0.00000000E+00  0.00000000E+00
  0.00000000E+00  0.00000000E+00  0.00000000E+00
  0.00000000E+00  0.00000000E+00  0.00000000E+00
  0.00000000E+00  0.00000000E+00  0.00000000E+00
  0.00000000E+00  0.00000000E+00  0.00000000E+00
  0.00000000E+00  0.00000000E+00  0.00000000E+00
  0.00000000E+00  0.00000000E+00  0.00000000E+00
  0.00000000E+00  0.00000000E+00  0.00000000E+00
  0.00000000E+00  0.00000000E+00  0.00000000E+00
  0.00000000E+00  0.00000000E+00  0.00000000E+00
  0.00000000E+00  0.00000000E+00  0.00000000E+00
  0.00000000E+00  0.00000000E+00  0.00000000E+00
  0.00000000E+00  0.00000000E+00  0.00000000E+00
  0.00000000E+00  0.00000000E+00  0.00000000E+00
  0.00000000E+00  0.00000000E+00  0.00000000E+00
  0.00000000E+00  0.00000000E+00  0.00000000E+00
  0.00000000E+00  0.00000000E+00  0.00000000E+00
  0.00000000E+00  0.00000000E+00  0.00000000E+00
  0.00000000E+00  0.00000000E+00  0.00000000E+00
  0.00000000E+00  0.00000000E+00  0.00000000E+00
  0.00000000E+00  0.00000000E+00  0.00000000E+00
  0.00000000E+00  0.00000000E+00  0.00000000E+00
  0.00000000E+00  0.00000000E+00  0.00000000E+00
  0.00000000E+00  0.00000000E+00  0.00000000E+00
  0.00000000E+00  0.00000000E+00  0.00000000E+00
  0.00000000E+00  0.00000000E+00  0.00000000E+00
  0.00000000E+00  0.00000000E+00  0.00000000E+00
  0.00000000E+00  0.00000000E+00  0.00000000E+00
  0.00000000E+00  0.00000000E+00  0.00000000E+00
  0.00000000E+00  0.00000000E+00  0.00000000E+00
  0.00000000E+00  0.00000000E+00  0.00000000E+00
  0.00000000E+00  0.00000000E+00  0.00000000E+00
