Pt   Cu   Ni   Fe   Co   H              
   1.00000000000000     
    10.5600004195999997    0.0000000000000000    0.0000000000000000
     5.2800002097999998    9.1452286273999999    0.0000000000000000
     0.0000000000000000    0.0000000000000000   22.0000000000000000
   Pt   Cu   Ni   Fe   Co   H 
    32    13    10    13    12     2
Selective dynamics
Direct
  0.7905018826915531  0.8743017525517189  0.3172676533123839   T   T   T
  0.0438946603280105  0.8808615830095641  0.3159551688215998   T   T   T
  0.2875672804614998  0.3776489690435506  0.3199318206356895   T   T   T
  0.8789748265370076  0.9576126123962783  0.4235870370536710   T   T   T
  0.1280928337769612  0.4565617562442859  0.4268488839683878   T   T   T
  0.1290787560735860  0.9575838518991938  0.4213552020848996   T   T   T
  0.8803479340264094  0.4529447237760524  0.4223211893221634   T   T   T
  0.3776862746840600  0.9559806669868166  0.4175483209718271   T   T   T
  0.8768495136371426  0.2084010433922817  0.4220021820735432   T   T   T
  0.1290647940265315  0.2069534794860877  0.4220457388137256   T   T   T
  0.6250851650843612  0.9595701338057628  0.4278064853221376   T   T   T
  0.8805537469872522  0.7052842650087043  0.4432587418366428   T   T   T
  0.3765950708755537  0.2067678719441219  0.4274209586602345   T   T   T
  0.3777082381916108  0.7084224283566182  0.4262062055121217   T   T   T
  0.6276104321433735  0.4571042500021370  0.4239902198913069   T   T   T
  0.1260764142934824  0.7078436075028004  0.4253369599602054   T   T   T
  0.6280401062899595  0.2067343200640276  0.4245197505213961   T   T   T
  0.5549439895423759  0.3703896127475907  0.3176536222851873   T   T   T
  0.5390000107317999  0.1209252556978131  0.3157292911502960   T   T   T
  0.5474557691032089  0.1224145471164988  0.0383540260045478   F   F   F
  0.1236064448242544  0.4619868652207941  0.1274066645318186   F   F   F
  0.0404039267332195  0.1344354017289766  0.3131559122301094   T   T   T
  0.0323512895519684  0.1348251109224066  0.0344153389136395   F   F   F
  0.1267130615797001  0.9548495891329765  0.1316270848000016   F   F   F
  0.3765862804212691  0.4588424369071700  0.4258507667019658   T   T   T
  0.4577929944478427  0.5456247416986244  0.2200856014136363   F   F   F
  0.6236920933803455  0.7059385252943891  0.4352145843309396   T   T   T
  0.9641386328546346  0.7927262172516194  0.2176139731681843   F   F   F
  0.7870920601090341  0.6247367409516946  0.3203813790802498   T   T   T
  0.2935865774669389  0.6308246083017433  0.3191292995331639   T   T   T
  0.2112359165491497  0.2837402313404738  0.2226962608636356   F   F   F
  0.7170982237511581  0.5368531721328651  0.2205881042545457   F   F   F
  0.0386450265275412  0.6247570687670000  0.3230161174463647   T   T   T
  0.7972000438328166  0.8697589236827383  0.0374023497136378   F   F   F
  0.0440625835034183  0.8722191461787219  0.0345072269909110   F   F   F
  0.0392610792287442  0.6311846045166689  0.0351220357090938   F   F   F
  0.6257475188796491  0.2142350187539250  0.1326781676272759   F   F   F
  0.3760834871882253  0.9610439443107381  0.1305574189681806   F   F   F
  0.0399240889049827  0.3803501872234546  0.3201170568714359   T   T   T
  0.0396170568831593  0.3768031419767439  0.0334889225727295   F   F   F
  0.8676193552394906  0.2152196349365170  0.1309720674090897   F   F   F
  0.9596267895245916  0.5454269423352969  0.2247318812727244   F   F   F
  0.2931019358797547  0.1195706014002411  0.3192150474442454   T   T   T
  0.5407259549727361  0.6316182703033489  0.3229640361489375   T   T   T
  0.2917831490269052  0.1260602338629297  0.0372542039999999   F   F   F
  0.5454515139348999  0.6259782464101775  0.0420624231136344   F   F   F
  0.3067879116385299  0.3735680389951384  0.0391298778454541   F   F   F
  0.6278828336866127  0.9518576864791655  0.1326303949409109   F   F   F
  0.7014205873461066  0.7982020760125437  0.2228083038681845   F   F   F
  0.8663351732921925  0.7104737684778044  0.1283473372272752   F   F   F
  0.6246753788169244  0.4577386687586937  0.1281447755045448   F   F   F
  0.3009245501660379  0.8752095762217525  0.3159336097162515   T   T   T
  0.3061509070593971  0.8669645173489897  0.0394945869454517   F   F   F
  0.6189298912310122  0.7160352078547945  0.1315782563727268   F   F   F
  0.2158013217278736  0.0346202722424493  0.2239695528954542   F   F   F
  0.5413003481162377  0.3854934694292353  0.0392421232909115   F   F   F
  0.3793596896688101  0.2077414937564157  0.1304859276181816   F   F   F
  0.1397005988927233  0.7004273062357669  0.1260118729227244   F   F   F
  0.7032928047068907  0.0430698299351278  0.2223786639500034   F   F   F
  0.7951376758901978  0.1255641029023227  0.3227128776889862   T   T   T
  0.5401465568370766  0.8732486030735671  0.3175054252614072   T   T   T
  0.7886637734805362  0.1316311679178028  0.0356870601590913   F   F   F
  0.5500230713442207  0.8647745424215145  0.0409676415136389   F   F   F
  0.2133428810521139  0.5401467028500520  0.2246093103863629   F   F   F
  0.9628013650069889  0.2896499814519231  0.2215883351272723   F   F   F
  0.8674074857836018  0.9664102647932040  0.1274066662954567   F   F   F
  0.7175321873646183  0.2868729996907575  0.2245318191636372   F   F   F
  0.4591571903798268  0.2930458401412253  0.2237691903681807   F   F   F
  0.8738730802821166  0.4568980253572903  0.1267729113318197   F   F   F
  0.1172650635095778  0.2104917527411558  0.1300894581727263   F   F   F
  0.7847808401012983  0.6256565767374056  0.0430916531090944   F   F   F
  0.3044675991730514  0.6228429328419551  0.0413873785499987   F   F   F
  0.3774641631786082  0.7058247950696810  0.1277445443409064   F   F   F
  0.3790290951972111  0.4600384977577221  0.1289947120409067   F   F   F
  0.7960160095457267  0.3709857080029416  0.3187181987521382   T   T   T
  0.7878239818798747  0.3875206431014675  0.0411156729818174   F   F   F
  0.9438556562023948  0.0510421196689848  0.2234485127000028   F   F   F
  0.4570233967922803  0.8026344196806434  0.2250269443545463   F   F   F
  0.2162964734646451  0.7953313450368995  0.2247401188045473   F   F   F
  0.4610885657498471  0.0339352508881134  0.2216139020181842   F   F   F
  0.7070235750175985  0.8046587591235753  0.4854364826743931   T   T   T
  0.7807459830189147  0.6426639460178610  0.4879912181237615   T   T   T
 
  0.00000000E+00  0.00000000E+00  0.00000000E+00
  0.00000000E+00  0.00000000E+00  0.00000000E+00
  0.00000000E+00  0.00000000E+00  0.00000000E+00
  0.00000000E+00  0.00000000E+00  0.00000000E+00
  0.00000000E+00  0.00000000E+00  0.00000000E+00
  0.00000000E+00  0.00000000E+00  0.00000000E+00
  0.00000000E+00  0.00000000E+00  0.00000000E+00
  0.00000000E+00  0.00000000E+00  0.00000000E+00
  0.00000000E+00  0.00000000E+00  0.00000000E+00
  0.00000000E+00  0.00000000E+00  0.00000000E+00
  0.00000000E+00  0.00000000E+00  0.00000000E+00
  0.00000000E+00  0.00000000E+00  0.00000000E+00
  0.00000000E+00  0.00000000E+00  0.00000000E+00
  0.00000000E+00  0.00000000E+00  0.00000000E+00
  0.00000000E+00  0.00000000E+00  0.00000000E+00
  0.00000000E+00  0.00000000E+00  0.00000000E+00
  0.00000000E+00  0.00000000E+00  0.00000000E+00
  0.00000000E+00  0.00000000E+00  0.00000000E+00
  0.00000000E+00  0.00000000E+00  0.00000000E+00
  0.00000000E+00  0.00000000E+00  0.00000000E+00
  0.00000000E+00  0.00000000E+00  0.00000000E+00
  0.00000000E+00  0.00000000E+00  0.00000000E+00
  0.00000000E+00  0.00000000E+00  0.00000000E+00
  0.00000000E+00  0.00000000E+00  0.00000000E+00
  0.00000000E+00  0.00000000E+00  0.00000000E+00
  0.00000000E+00  0.00000000E+00  0.00000000E+00
  0.00000000E+00  0.00000000E+00  0.00000000E+00
  0.00000000E+00  0.00000000E+00  0.00000000E+00
  0.00000000E+00  0.00000000E+00  0.00000000E+00
  0.00000000E+00  0.00000000E+00  0.00000000E+00
  0.00000000E+00  0.00000000E+00  0.00000000E+00
  0.00000000E+00  0.00000000E+00  0.00000000E+00
  0.00000000E+00  0.00000000E+00  0.00000000E+00
  0.00000000E+00  0.00000000E+00  0.00000000E+00
  0.00000000E+00  0.00000000E+00  0.00000000E+00
  0.00000000E+00  0.00000000E+00  0.00000000E+00
  0.00000000E+00  0.00000000E+00  0.00000000E+00
  0.00000000E+00  0.00000000E+00  0.00000000E+00
  0.00000000E+00  0.00000000E+00  0.00000000E+00
  0.00000000E+00  0.00000000E+00  0.00000000E+00
  0.00000000E+00  0.00000000E+00  0.00000000E+00
  0.00000000E+00  0.00000000E+00  0.00000000E+00
  0.00000000E+00  0.00000000E+00  0.00000000E+00
  0.00000000E+00  0.00000000E+00  0.00000000E+00
  0.00000000E+00  0.00000000E+00  0.00000000E+00
  0.00000000E+00  0.00000000E+00  0.00000000E+00
  0.00000000E+00  0.00000000E+00  0.00000000E+00
  0.00000000E+00  0.00000000E+00  0.00000000E+00
  0.00000000E+00  0.00000000E+00  0.00000000E+00
  0.00000000E+00  0.00000000E+00  0.00000000E+00
  0.00000000E+00  0.00000000E+00  0.00000000E+00
  0.00000000E+00  0.00000000E+00  0.00000000E+00
  0.00000000E+00  0.00000000E+00  0.00000000E+00
  0.00000000E+00  0.00000000E+00  0.00000000E+00
  0.00000000E+00  0.00000000E+00  0.00000000E+00
  0.00000000E+00  0.00000000E+00  0.00000000E+00
  0.00000000E+00  0.00000000E+00  0.00000000E+00
  0.00000000E+00  0.00000000E+00  0.00000000E+00
  0.00000000E+00  0.00000000E+00  0.00000000E+00
  0.00000000E+00  0.00000000E+00  0.00000000E+00
  0.00000000E+00  0.00000000E+00  0.00000000E+00
  0.00000000E+00  0.00000000E+00  0.00000000E+00
  0.00000000E+00  0.00000000E+00  0.00000000E+00
  0.00000000E+00  0.00000000E+00  0.00000000E+00
  0.00000000E+00  0.00000000E+00  0.00000000E+00
  0.00000000E+00  0.00000000E+00  0.00000000E+00
  0.00000000E+00  0.00000000E+00  0.00000000E+00
  0.00000000E+00  0.00000000E+00  0.00000000E+00
  0.00000000E+00  0.00000000E+00  0.00000000E+00
  0.00000000E+00  0.00000000E+00  0.00000000E+00
  0.00000000E+00  0.00000000E+00  0.00000000E+00
  0.00000000E+00  0.00000000E+00  0.00000000E+00
  0.00000000E+00  0.00000000E+00  0.00000000E+00
  0.00000000E+00  0.00000000E+00  0.00000000E+00
  0.00000000E+00  0.00000000E+00  0.00000000E+00
  0.00000000E+00  0.00000000E+00  0.00000000E+00
  0.00000000E+00  0.00000000E+00  0.00000000E+00
  0.00000000E+00  0.00000000E+00  0.00000000E+00
  0.00000000E+00  0.00000000E+00  0.00000000E+00
  0.00000000E+00  0.00000000E+00  0.00000000E+00
  0.00000000E+00  0.00000000E+00  0.00000000E+00
  0.00000000E+00  0.00000000E+00  0.00000000E+00
