PtM\(2)                                 
   1.00000000000000     
    10.5600004195999997    0.0000000000000000    0.0000000000000000
     5.2800002097999998    9.1452286273999999    0.0000000000000000
     0.0000000000000000    0.0000000000000000   22.0000000000000000
   Cu   Pt   H 
    64    16     2
Selective dynamics
Direct
  0.7851208485585818  0.8692194773706476  0.3146264066180074   T   T   T
  0.0353909823109875  0.8690709559465170  0.3147173856513596   T   T   T
  0.0351511101261258  0.6193659041355273  0.3147087301768371   T   T   T
  0.7862489977741944  0.8683580306463838  0.0449029301409070   F   F   F
  0.0363259342032549  0.8683109594885678  0.0449037755136388   F   F   F
  0.0362926956164600  0.6183453800441185  0.0449040668727250   F   F   F
  0.6190059373410435  0.2020352778895287  0.1352781702363615   F   F   F
  0.3690287182127392  0.9520179664196391  0.1352793628454521   F   F   F
  0.0350579355313052  0.3693979701596982  0.3146582286777814   T   T   T
  0.0363223169521234  0.3683400816035913  0.0449042535590891   F   F   F
  0.8690354394784165  0.2020170446548164  0.1352869309954556   F   F   F
  0.9519737745029785  0.5358016061085010  0.2250306665212701   T   T   T
  0.2852964816115590  0.1191679280556878  0.3146576464359983   T   T   T
  0.5353322259350370  0.6194299515923896  0.3141397814027780   T   T   T
  0.2851541762041185  0.3692682080830573  0.3146230036366539   T   T   T
  0.2862743719031045  0.1183406332300407  0.0449050022409097   F   F   F
  0.5363161573872759  0.6183452978263801  0.0448859087045435   F   F   F
  0.2863548261650166  0.3683290234218717  0.0448970020954533   F   F   F
  0.6190115951470077  0.9519934922693309  0.1352729054090887   F   F   F
  0.7020563393700007  0.7856646308878300  0.2250248259996487   T   T   T
  0.8690562341340424  0.7019773347563785  0.1352801621909094   F   F   F
  0.6190154306749704  0.4520216268748740  0.1352790409500031   F   F   F
  0.2849757542280708  0.8697766247317684  0.3145200175343216   T   T   T
  0.2863313801676881  0.8683468335616311  0.0448881439999980   F   F   F
  0.6190297104958304  0.7020185649120592  0.1352794445545484   F   F   F
  0.2019034283216050  0.0357556629141292  0.2249844109705231   T   T   T
  0.5350175538060443  0.3690154549094286  0.3144558334215734   T   T   T
  0.5362909971988969  0.3683687437629146  0.0448882480863659   F   F   F
  0.5352570059977548  0.1192626343720528  0.3147051166736962   T   T   T
  0.5363149216246015  0.1183187474021210  0.0448927739090905   F   F   F
  0.8690821575080889  0.4519764673149709  0.1352776201363639   F   F   F
  0.1190566022182153  0.4520153678952070  0.1352898458409086   F   F   F
  0.0350739327924502  0.1191778852675452  0.3146756110248818   T   T   T
  0.0362816687696892  0.1183447565605249  0.0449075346136354   F   F   F
  0.1190601259472075  0.9519896514796216  0.1352788457909071   F   F   F
  0.4519415038141690  0.5355546906941516  0.2248912285129488   T   T   T
  0.3690244471336612  0.2020149772051383  0.1352856928499975   F   F   F
  0.1190303050251416  0.2020411246214309  0.1352914691636329   F   F   F
  0.9521618742237217  0.7856149093376229  0.2250214821574384   T   T   T
  0.7851575284863431  0.6191276537597148  0.3146839144037163   T   T   T
  0.2849196772135503  0.6191269036769893  0.3144530703988875   T   T   T
  0.7862585535986497  0.6183514669231087  0.0448983113227257   F   F   F
  0.2863148512113511  0.6183444775079039  0.0448935090136331   F   F   F
  0.3690604108637601  0.7020085334733963  0.1352746690909115   F   F   F
  0.3690289842654053  0.4520183087839627  0.1352848660681829   F   F   F
  0.2020566065862614  0.2856586172880428  0.2250675081763294   T   T   T
  0.7856714427169083  0.3690737439509130  0.3145283092213257   T   T   T
  0.7862455880820818  0.3683649368487991  0.0448978039272703   F   F   F
  0.9519459997481493  0.0355567140475977  0.2250578907569387   T   T   T
  0.4519070290169501  0.7861124534986134  0.2248485041303219   T   T   T
  0.7025031760141983  0.5355138203855365  0.2248434623293643   T   T   T
  0.2019820541585073  0.7857869108087512  0.2249508125736351   T   T   T
  0.4521924902813022  0.0355853693969676  0.2250303443328034   T   T   T
  0.1190753377591065  0.7019761661032575  0.1352883550727242   F   F   F
  0.7020002104539237  0.0357710068123307  0.2250166196759015   T   T   T
  0.7849667094695115  0.1194875297353181  0.3147149694344457   T   T   T
  0.5350310486320020  0.8692538282972415  0.3146749852883751   T   T   T
  0.7863001972648362  0.1183328961790693  0.0449101627227293   F   F   F
  0.5362660313703174  0.8683264854426795  0.0448757432500031   F   F   F
  0.2019109005019982  0.5356363940601517  0.2249561115613419   T   T   T
  0.9521175481223543  0.2855230582557923  0.2249933134349798   T   T   T
  0.8690701809434032  0.9519851025282833  0.1352848888045486   F   F   F
  0.7021623796133459  0.2855898277283040  0.2249519487140747   T   T   T
  0.4520319921405544  0.2855183472687709  0.2249543649461918   T   T   T
  0.8680003191666109  0.9531279898231815  0.4137177280112847   T   T   T
  0.1179356132757811  0.4531325276682269  0.4136777599517937   T   T   T
  0.1180187817774597  0.9530365556444751  0.4137382051723818   T   T   T
  0.8678218529028464  0.4532105281405036  0.4138005815115227   T   T   T
  0.3680792157417081  0.9529646701443321  0.4137943482985679   T   T   T
  0.8678974952024626  0.2031136142827160  0.4137469304580881   T   T   T
  0.1178811531287440  0.2030455584051472  0.4137118119381222   T   T   T
  0.6178951407516593  0.9531113199175550  0.4137022622075960   T   T   T
  0.8679561350859769  0.7030359186348728  0.4137069237180774   T   T   T
  0.3679955429845444  0.2030772617475466  0.4136770577316863   T   T   T
  0.3679583809588517  0.7030677689050042  0.4129689290847077   T   T   T
  0.6179936033208501  0.4530346565767242  0.4129542631284421   T   T   T
  0.1180598601403364  0.7029712274506092  0.4138508910661449   T   T   T
  0.6178265080133711  0.2031814922877373  0.4138549842165842   T   T   T
  0.3679679398646941  0.4530959598720024  0.4135928461509476   T   T   T
  0.6179575035515360  0.7030705083096659  0.4135953222299074   T   T   T
  0.4740294189401341  0.5554702452848147  0.5486558291534728   T   T   T
  0.5165284640765510  0.5952143669011686  0.5488563706840729   T   T   T
 
  0.00000000E+00  0.00000000E+00  0.00000000E+00
  0.00000000E+00  0.00000000E+00  0.00000000E+00
  0.00000000E+00  0.00000000E+00  0.00000000E+00
  0.00000000E+00  0.00000000E+00  0.00000000E+00
  0.00000000E+00  0.00000000E+00  0.00000000E+00
  0.00000000E+00  0.00000000E+00  0.00000000E+00
  0.00000000E+00  0.00000000E+00  0.00000000E+00
  0.00000000E+00  0.00000000E+00  0.00000000E+00
  0.00000000E+00  0.00000000E+00  0.00000000E+00
  0.00000000E+00  0.00000000E+00  0.00000000E+00
  0.00000000E+00  0.00000000E+00  0.00000000E+00
  0.00000000E+00  0.00000000E+00  0.00000000E+00
  0.00000000E+00  0.00000000E+00  0.00000000E+00
  0.00000000E+00  0.00000000E+00  0.00000000E+00
  0.00000000E+00  0.00000000E+00  0.00000000E+00
  0.00000000E+00  0.00000000E+00  0.00000000E+00
  0.00000000E+00  0.00000000E+00  0.00000000E+00
  0.00000000E+00  0.00000000E+00  0.00000000E+00
  0.00000000E+00  0.00000000E+00  0.00000000E+00
  0.00000000E+00  0.00000000E+00  0.00000000E+00
  0.00000000E+00  0.00000000E+00  0.00000000E+00
  0.00000000E+00  0.00000000E+00  0.00000000E+00
  0.00000000E+00  0.00000000E+00  0.00000000E+00
  0.00000000E+00  0.00000000E+00  0.00000000E+00
  0.00000000E+00  0.00000000E+00  0.00000000E+00
  0.00000000E+00  0.00000000E+00  0.00000000E+00
  0.00000000E+00  0.00000000E+00  0.00000000E+00
  0.00000000E+00  0.00000000E+00  0.00000000E+00
  0.00000000E+00  0.00000000E+00  0.00000000E+00
  0.00000000E+00  0.00000000E+00  0.00000000E+00
  0.00000000E+00  0.00000000E+00  0.00000000E+00
  0.00000000E+00  0.00000000E+00  0.00000000E+00
  0.00000000E+00  0.00000000E+00  0.00000000E+00
  0.00000000E+00  0.00000000E+00  0.00000000E+00
  0.00000000E+00  0.00000000E+00  0.00000000E+00
  0.00000000E+00  0.00000000E+00  0.00000000E+00
  0.00000000E+00  0.00000000E+00  0.00000000E+00
  0.00000000E+00  0.00000000E+00  0.00000000E+00
  0.00000000E+00  0.00000000E+00  0.00000000E+00
  0.00000000E+00  0.00000000E+00  0.00000000E+00
  0.00000000E+00  0.00000000E+00  0.00000000E+00
  0.00000000E+00  0.00000000E+00  0.00000000E+00
  0.00000000E+00  0.00000000E+00  0.00000000E+00
  0.00000000E+00  0.00000000E+00  0.00000000E+00
  0.00000000E+00  0.00000000E+00  0.00000000E+00
  0.00000000E+00  0.00000000E+00  0.00000000E+00
  0.00000000E+00  0.00000000E+00  0.00000000E+00
  0.00000000E+00  0.00000000E+00  0.00000000E+00
  0.00000000E+00  0.00000000E+00  0.00000000E+00
  0.00000000E+00  0.00000000E+00  0.00000000E+00
  0.00000000E+00  0.00000000E+00  0.00000000E+00
  0.00000000E+00  0.00000000E+00  0.00000000E+00
  0.00000000E+00  0.00000000E+00  0.00000000E+00
  0.00000000E+00  0.00000000E+00  0.00000000E+00
  0.00000000E+00  0.00000000E+00  0.00000000E+00
  0.00000000E+00  0.00000000E+00  0.00000000E+00
  0.00000000E+00  0.00000000E+00  0.00000000E+00
  0.00000000E+00  0.00000000E+00  0.00000000E+00
  0.00000000E+00  0.00000000E+00  0.00000000E+00
  0.00000000E+00  0.00000000E+00  0.00000000E+00
  0.00000000E+00  0.00000000E+00  0.00000000E+00
  0.00000000E+00  0.00000000E+00  0.00000000E+00
  0.00000000E+00  0.00000000E+00  0.00000000E+00
  0.00000000E+00  0.00000000E+00  0.00000000E+00
  0.00000000E+00  0.00000000E+00  0.00000000E+00
  0.00000000E+00  0.00000000E+00  0.00000000E+00
  0.00000000E+00  0.00000000E+00  0.00000000E+00
  0.00000000E+00  0.00000000E+00  0.00000000E+00
  0.00000000E+00  0.00000000E+00  0.00000000E+00
  0.00000000E+00  0.00000000E+00  0.00000000E+00
  0.00000000E+00  0.00000000E+00  0.00000000E+00
  0.00000000E+00  0.00000000E+00  0.00000000E+00
  0.00000000E+00  0.00000000E+00  0.00000000E+00
  0.00000000E+00  0.00000000E+00  0.00000000E+00
  0.00000000E+00  0.00000000E+00  0.00000000E+00
  0.00000000E+00  0.00000000E+00  0.00000000E+00
  0.00000000E+00  0.00000000E+00  0.00000000E+00
  0.00000000E+00  0.00000000E+00  0.00000000E+00
  0.00000000E+00  0.00000000E+00  0.00000000E+00
  0.00000000E+00  0.00000000E+00  0.00000000E+00
  0.00000000E+00  0.00000000E+00  0.00000000E+00
  0.00000000E+00  0.00000000E+00  0.00000000E+00
