Pt   H                                  
   1.00000000000000     
    10.5600004195999997    0.0000000000000000    0.0000000000000000
    -5.2800002097999998    9.1452286273999999    0.0000000000000000
     0.0000000000000000    0.0000000000000000   20.0000000000000000
   Pt   H 
    64     2
Selective dynamics
Direct
  0.9999984446215961  0.0000015553793773  0.0557922949150012   F   F   F
  0.3332879503703400  0.1673928164878246  0.1785948653817316   T   T   T
  0.1686196838752155  0.3330196777263656  0.3018480537763404   T   T   T
  0.0022533416820713  0.0021271086072316  0.4185565583386771   T   T   T
  0.9999984416169312  0.2500015483757210  0.0557922949150012   F   F   F
  0.3335922896800878  0.4163769939804483  0.1822036672447934   T   T   T
  0.1689526025082284  0.0863337955945750  0.3004950142027484   T   T   T
  0.0007613958009019  0.2497471013997619  0.4178697117344211   T   T   T
  0.2499984416169312  0.2500015483757210  0.0557922949150012   F   F   F
  0.0839801994794497  0.4164121643596088  0.1773591631121930   T   T   T
  0.4164919840361554  0.0841179272934454  0.2966162264987861   T   T   T
  0.2483407174489784  0.2474567433574230  0.4472408607705490   T   T   T
  0.2499984446215961  0.0000015553793773  0.0557922949150012   F   F   F
  0.0844906817456478  0.1673420964506050  0.1793878068823007   T   T   T
  0.4158853483173751  0.3344709333668541  0.3027801213718482   T   T   T
  0.2497044403654323  0.0002284731094164  0.4185495170678454   T   T   T
  0.4999984446215961  0.0000015553793773  0.0557922949150012   F   F   F
  0.8335353053268978  0.1667012682293265  0.1775700550745651   T   T   T
  0.6660765493967054  0.3337073837303964  0.2965470953755340   T   T   T
  0.5001692722105405  0.0001850394823875  0.4188484518899455   T   T   T
  0.4999984296188273  0.2500015483757210  0.0557922949150012   F   F   F
  0.8332146400674999  0.4168526518939346  0.1768812224792966   T   T   T
  0.6664989568385581  0.0837171601211397  0.2971988901117696   T   T   T
  0.5002805308045229  0.2505335636276954  0.4173582937892280   T   T   T
  0.7499984076207227  0.2500015483757210  0.0557922949150012   F   F   F
  0.5826159671704086  0.4167074676784306  0.1785333313156299   T   T   T
  0.9174785581417052  0.0833395462452562  0.2971122596142746   T   T   T
  0.7503263760921769  0.2504752690715953  0.4186817308212618   T   T   T
  0.7499984216197078  0.0000015553793773  0.0557922949150012   F   F   F
  0.5831082689546188  0.1668511145303341  0.1767290538697219   T   T   T
  0.9172765562879103  0.3333421103558842  0.2967890566401660   T   T   T
  0.7506785147773058  0.0001781784811007  0.4178948647073875   T   T   T
  0.9999984376190483  0.5000015423780582  0.0557922949150012   F   F   F
  0.3335599575857963  0.6660011303056450  0.1773125350677670   T   T   T
  0.1673022029433366  0.8340068455271930  0.2961328070845845   T   T   T
  0.0004528714612455  0.5001173663179744  0.4180528606527921   T   T   T
  0.9999984326223199  0.7500015093827130  0.0557922949150012   F   F   F
  0.3331101929398523  0.9167748557285212  0.1769224098126869   T   T   T
  0.1677413908442633  0.5826340650733081  0.2965011018032712   T   T   T
  0.0002147579755208  0.7505970893912540  0.4150197790126752   T   T   T
  0.2499984326223199  0.7500015093827130  0.0557922949150012   F   F   F
  0.0835883515963894  0.9173569751678434  0.1767919452727117   T   T   T
  0.4171422371907731  0.5816063181128167  0.3016172171477980   T   T   T
  0.2505527376231008  0.7502769827630202  0.4183303444507012   T   T   T
  0.2499984376190483  0.5000015423780582  0.0557922949150012   F   F   F
  0.0833333344998795  0.6666563756497169  0.1762574204013750   T   T   T
  0.4169658722618405  0.8330353977373394  0.2968162145282552   T   T   T
  0.2499964849614363  0.5006670652484583  0.4215449023334419   T   T   T
  0.4999984376190483  0.5000015423780582  0.0557922949150012   F   F   F
  0.8325952294682003  0.6663477604395384  0.1768548196340710   T   T   T
  0.6670397683802545  0.8329172240258312  0.2971596221105410   T   T   T
  0.5034074100454832  0.5034286088127575  0.4452807765835057   T   T   T
  0.4999984326223199  0.7500015093827130  0.0557922949150012   F   F   F
  0.8332689187169110  0.9167102406730355  0.1766539597898874   T   T   T
  0.6638345216692628  0.5813845027117590  0.3006246850851220   T   T   T
  0.5009702969021895  0.7500558971271968  0.4177793202978256   T   T   T
  0.7499984106242152  0.7500015093827130  0.0557922949150012   F   F   F
  0.5832604658430194  0.9164406960536247  0.1775905954354927   T   T   T
  0.9163401529926799  0.5830517047917070  0.2960709563872909   T   T   T
  0.7489677723328075  0.7488330228201329  0.4189164617763578   T   T   T
  0.7499983926190481  0.5000015423780582  0.0557922949150012   F   F   F
  0.5826507029105525  0.6654904311440023  0.1794076078672346   T   T   T
  0.9165252427610991  0.8336358612037977  0.2955966933651891   T   T   T
  0.7503908079597447  0.5009780725452739  0.4184133172999221   T   T   T
  0.3393059365474381  0.4175520222005637  0.4972942644087927   T   T   T
  0.4052535149535769  0.3301795525329472  0.4985418211271873   T   T   T
 
  0.00000000E+00  0.00000000E+00  0.00000000E+00
  0.00000000E+00  0.00000000E+00  0.00000000E+00
  0.00000000E+00  0.00000000E+00  0.00000000E+00
  0.00000000E+00  0.00000000E+00  0.00000000E+00
  0.00000000E+00  0.00000000E+00  0.00000000E+00
  0.00000000E+00  0.00000000E+00  0.00000000E+00
  0.00000000E+00  0.00000000E+00  0.00000000E+00
  0.00000000E+00  0.00000000E+00  0.00000000E+00
  0.00000000E+00  0.00000000E+00  0.00000000E+00
  0.00000000E+00  0.00000000E+00  0.00000000E+00
  0.00000000E+00  0.00000000E+00  0.00000000E+00
  0.00000000E+00  0.00000000E+00  0.00000000E+00
  0.00000000E+00  0.00000000E+00  0.00000000E+00
  0.00000000E+00  0.00000000E+00  0.00000000E+00
  0.00000000E+00  0.00000000E+00  0.00000000E+00
  0.00000000E+00  0.00000000E+00  0.00000000E+00
  0.00000000E+00  0.00000000E+00  0.00000000E+00
  0.00000000E+00  0.00000000E+00  0.00000000E+00
  0.00000000E+00  0.00000000E+00  0.00000000E+00
  0.00000000E+00  0.00000000E+00  0.00000000E+00
  0.00000000E+00  0.00000000E+00  0.00000000E+00
  0.00000000E+00  0.00000000E+00  0.00000000E+00
  0.00000000E+00  0.00000000E+00  0.00000000E+00
  0.00000000E+00  0.00000000E+00  0.00000000E+00
  0.00000000E+00  0.00000000E+00  0.00000000E+00
  0.00000000E+00  0.00000000E+00  0.00000000E+00
  0.00000000E+00  0.00000000E+00  0.00000000E+00
  0.00000000E+00  0.00000000E+00  0.00000000E+00
  0.00000000E+00  0.00000000E+00  0.00000000E+00
  0.00000000E+00  0.00000000E+00  0.00000000E+00
  0.00000000E+00  0.00000000E+00  0.00000000E+00
  0.00000000E+00  0.00000000E+00  0.00000000E+00
  0.00000000E+00  0.00000000E+00  0.00000000E+00
  0.00000000E+00  0.00000000E+00  0.00000000E+00
  0.00000000E+00  0.00000000E+00  0.00000000E+00
  0.00000000E+00  0.00000000E+00  0.00000000E+00
  0.00000000E+00  0.00000000E+00  0.00000000E+00
  0.00000000E+00  0.00000000E+00  0.00000000E+00
  0.00000000E+00  0.00000000E+00  0.00000000E+00
  0.00000000E+00  0.00000000E+00  0.00000000E+00
  0.00000000E+00  0.00000000E+00  0.00000000E+00
  0.00000000E+00  0.00000000E+00  0.00000000E+00
  0.00000000E+00  0.00000000E+00  0.00000000E+00
  0.00000000E+00  0.00000000E+00  0.00000000E+00
  0.00000000E+00  0.00000000E+00  0.00000000E+00
  0.00000000E+00  0.00000000E+00  0.00000000E+00
  0.00000000E+00  0.00000000E+00  0.00000000E+00
  0.00000000E+00  0.00000000E+00  0.00000000E+00
  0.00000000E+00  0.00000000E+00  0.00000000E+00
  0.00000000E+00  0.00000000E+00  0.00000000E+00
  0.00000000E+00  0.00000000E+00  0.00000000E+00
  0.00000000E+00  0.00000000E+00  0.00000000E+00
  0.00000000E+00  0.00000000E+00  0.00000000E+00
  0.00000000E+00  0.00000000E+00  0.00000000E+00
  0.00000000E+00  0.00000000E+00  0.00000000E+00
  0.00000000E+00  0.00000000E+00  0.00000000E+00
  0.00000000E+00  0.00000000E+00  0.00000000E+00
  0.00000000E+00  0.00000000E+00  0.00000000E+00
  0.00000000E+00  0.00000000E+00  0.00000000E+00
  0.00000000E+00  0.00000000E+00  0.00000000E+00
  0.00000000E+00  0.00000000E+00  0.00000000E+00
  0.00000000E+00  0.00000000E+00  0.00000000E+00
  0.00000000E+00  0.00000000E+00  0.00000000E+00
  0.00000000E+00  0.00000000E+00  0.00000000E+00
  0.00000000E+00  0.00000000E+00  0.00000000E+00
  0.00000000E+00  0.00000000E+00  0.00000000E+00
