Pt111                                   
   1.00000000000000     
    11.2227001190000006    0.0000000000000000    0.0000000000000000
     5.6113500595000003    9.7191434021000003    0.0000000000000000
     0.0000000000000000    0.0000000000000000   22.0000000000000000
   Pt   H 
    80     2
Direct
  0.7851236969837314  0.8691804252650696  0.3262585926441527
  0.0354301367290952  0.8688687295329325  0.3262510570374533
  0.0354918217575275  0.6185937813463720  0.3259898137936766
  0.7858903041358880  0.8683714395411032  0.0228744653712189
  0.0361149012484749  0.8683208189059534  0.0228259029487476
  0.0361642311360222  0.6183328120810705  0.0225922111671112
  0.6188834247612762  0.2020544739281423  0.1263141651133371
  0.3690189611466881  0.9514769832218891  0.1261352837903243
  0.0347154649767781  0.3689025758689580  0.3256013382060146
  0.0358692602629816  0.3686266144680144  0.0225910412102349
  0.8685647859626587  0.2019557838433018  0.1262305802631322
  0.9520750515317594  0.5354173261902450  0.2257765414171601
  0.2849338225652138  0.1186795935703526  0.3256382699357340
  0.5350666633252832  0.6190665285809107  0.3282679412413917
  0.2851900934074222  0.3692389674120252  0.3260419183241854
  0.2862917460619028  0.1182015323188837  0.0226160268069057
  0.5360368404331272  0.6183340221586571  0.0230047008845614
  0.2860408563824874  0.3683799290759752  0.0227077878183341
  0.6189352743449149  0.9521044412826164  0.1262374162339970
  0.7018389328075281  0.7853516298080943  0.2263648059646984
  0.8690748368156656  0.7020025565688210  0.1262006243109475
  0.6187246647409899  0.4521583143125847  0.1265857184904643
  0.2861200809128054  0.8670491848390023  0.3272225193100680
  0.2859163009560692  0.8684404135152534  0.0227729675174800
  0.6189351111571245  0.7020467243311383  0.1264364397504580
  0.2019085454075977  0.0351326789586054  0.2259174074186296
  0.8684564334042709  0.9528400746192321  0.4300720932590221
  0.1170049303903594  0.4523168172217170  0.4295457617256611
  0.1175904405843101  0.9531261562579257  0.4300383377087189
  0.8708411239920240  0.4510787477663645  0.4295378942632757
  0.3666874770026318  0.9552718285891946  0.4295538797257010
  0.8687080459241221  0.2020605409256965  0.4300493190405493
  0.1177326151429335  0.2021587854788331  0.4296427736194801
  0.6183782579144891  0.9536892570904296  0.4299224370315908
  0.8692819205277336  0.7028040330398900  0.4299040420950177
  0.3679500025298400  0.2014265784151590  0.4295724925588103
  0.3643268241911559  0.7066533922182369  0.4345436744067793
  0.6223069076667739  0.4487245747820995  0.4344302586762548
  0.1153659102528436  0.7043624034655169  0.4298915502286475
  0.6198844935064186  0.1998072933024358  0.4299435762017595
  0.5346796974624675  0.3700444402211308  0.3277684936211042
  0.5360550157065651  0.3684981996624760  0.0228439772348198
  0.5346428248409849  0.1194680770433479  0.3260145995380815
  0.5360577967172350  0.1184472052490946  0.0226050236656124
  0.8684345796577089  0.4520578034477701  0.1261153768936616
  0.1190191178012333  0.4519828234991812  0.1258447713678774
  0.0349597349576898  0.1189041519427800  0.3259712496381877
  0.0358615211746991  0.1181297304419517  0.0226225205612379
  0.1188303209989599  0.9516394435799641  0.1262385403343916
  0.3637834942793610  0.4481993143620344  0.4316221568243975
  0.4519506623201173  0.5356035186420370  0.2272351333426948
  0.6221776647502976  0.7064790265738649  0.4317847894796192
  0.3689709124113658  0.2020562892346697  0.1258604935603607
  0.1185930750851097  0.2017218606794727  0.1254321064523148
  0.9521854126420121  0.7853146564863372  0.2262713354066624
  0.7848639496701040  0.6191093932201639  0.3264979557709958
  0.2859969529542029  0.6186905851225817  0.3277601128951894
  0.7860782809275062  0.6183147023845841  0.0227952577754132
  0.2861987261150348  0.6183534641355529  0.0228698405632131
  0.3690979177833555  0.7018221416464612  0.1265915893549162
  0.3692903637350332  0.4522648715132219  0.1262985777160720
  0.2014710322229699  0.2850148264708913  0.2256065071136530
  0.7830585202867822  0.3701484504506191  0.3271849620036479
  0.7860373292529566  0.3683332991926189  0.0227465674317985
  0.9518154689737117  0.0355054526411448  0.2262984177128029
  0.4519626143438474  0.7853210556028872  0.2266950468732960
  0.7017037659053637  0.5355862806621464  0.2266768516568384
  0.2026352708074512  0.7850399756386892  0.2266171582517922
  0.4518008911226163  0.0357084326546696  0.2257956965246830
  0.1189739753287098  0.7019724790222974  0.1262992014567310
  0.7017521547979516  0.0358075670152673  0.2263035811835015
  0.7847968076570954  0.1194943087744907  0.3263003590524936
  0.5350996517354488  0.8689189036302136  0.3264928684216607
  0.7859853255298256  0.1184691775998101  0.0228464740838864
  0.5359959041983923  0.8684214141441721  0.0228000690492609
  0.2023793922279574  0.5352679865080302  0.2261290441444483
  0.9515056005599632  0.2855055845824412  0.2259319693131097
  0.8688573982864132  0.9518853368969715  0.1263861874388855
  0.7014591537619222  0.2862092036111412  0.2266203555734567
  0.4516933401137271  0.2859483738838380  0.2261677037446842
  0.4410220446745538  0.5261919628001019  0.4715804350803937
  0.5460438532403714  0.6324615440301579  0.4730230603804727
 
  0.00000000E+00  0.00000000E+00  0.00000000E+00
  0.00000000E+00  0.00000000E+00  0.00000000E+00
  0.00000000E+00  0.00000000E+00  0.00000000E+00
  0.00000000E+00  0.00000000E+00  0.00000000E+00
  0.00000000E+00  0.00000000E+00  0.00000000E+00
  0.00000000E+00  0.00000000E+00  0.00000000E+00
  0.00000000E+00  0.00000000E+00  0.00000000E+00
  0.00000000E+00  0.00000000E+00  0.00000000E+00
  0.00000000E+00  0.00000000E+00  0.00000000E+00
  0.00000000E+00  0.00000000E+00  0.00000000E+00
  0.00000000E+00  0.00000000E+00  0.00000000E+00
  0.00000000E+00  0.00000000E+00  0.00000000E+00
  0.00000000E+00  0.00000000E+00  0.00000000E+00
  0.00000000E+00  0.00000000E+00  0.00000000E+00
  0.00000000E+00  0.00000000E+00  0.00000000E+00
  0.00000000E+00  0.00000000E+00  0.00000000E+00
  0.00000000E+00  0.00000000E+00  0.00000000E+00
  0.00000000E+00  0.00000000E+00  0.00000000E+00
  0.00000000E+00  0.00000000E+00  0.00000000E+00
  0.00000000E+00  0.00000000E+00  0.00000000E+00
  0.00000000E+00  0.00000000E+00  0.00000000E+00
  0.00000000E+00  0.00000000E+00  0.00000000E+00
  0.00000000E+00  0.00000000E+00  0.00000000E+00
  0.00000000E+00  0.00000000E+00  0.00000000E+00
  0.00000000E+00  0.00000000E+00  0.00000000E+00
  0.00000000E+00  0.00000000E+00  0.00000000E+00
  0.00000000E+00  0.00000000E+00  0.00000000E+00
  0.00000000E+00  0.00000000E+00  0.00000000E+00
  0.00000000E+00  0.00000000E+00  0.00000000E+00
  0.00000000E+00  0.00000000E+00  0.00000000E+00
  0.00000000E+00  0.00000000E+00  0.00000000E+00
  0.00000000E+00  0.00000000E+00  0.00000000E+00
  0.00000000E+00  0.00000000E+00  0.00000000E+00
  0.00000000E+00  0.00000000E+00  0.00000000E+00
  0.00000000E+00  0.00000000E+00  0.00000000E+00
  0.00000000E+00  0.00000000E+00  0.00000000E+00
  0.00000000E+00  0.00000000E+00  0.00000000E+00
  0.00000000E+00  0.00000000E+00  0.00000000E+00
  0.00000000E+00  0.00000000E+00  0.00000000E+00
  0.00000000E+00  0.00000000E+00  0.00000000E+00
  0.00000000E+00  0.00000000E+00  0.00000000E+00
  0.00000000E+00  0.00000000E+00  0.00000000E+00
  0.00000000E+00  0.00000000E+00  0.00000000E+00
  0.00000000E+00  0.00000000E+00  0.00000000E+00
  0.00000000E+00  0.00000000E+00  0.00000000E+00
  0.00000000E+00  0.00000000E+00  0.00000000E+00
  0.00000000E+00  0.00000000E+00  0.00000000E+00
  0.00000000E+00  0.00000000E+00  0.00000000E+00
  0.00000000E+00  0.00000000E+00  0.00000000E+00
  0.00000000E+00  0.00000000E+00  0.00000000E+00
  0.00000000E+00  0.00000000E+00  0.00000000E+00
  0.00000000E+00  0.00000000E+00  0.00000000E+00
  0.00000000E+00  0.00000000E+00  0.00000000E+00
  0.00000000E+00  0.00000000E+00  0.00000000E+00
  0.00000000E+00  0.00000000E+00  0.00000000E+00
  0.00000000E+00  0.00000000E+00  0.00000000E+00
  0.00000000E+00  0.00000000E+00  0.00000000E+00
  0.00000000E+00  0.00000000E+00  0.00000000E+00
  0.00000000E+00  0.00000000E+00  0.00000000E+00
  0.00000000E+00  0.00000000E+00  0.00000000E+00
  0.00000000E+00  0.00000000E+00  0.00000000E+00
  0.00000000E+00  0.00000000E+00  0.00000000E+00
  0.00000000E+00  0.00000000E+00  0.00000000E+00
  0.00000000E+00  0.00000000E+00  0.00000000E+00
  0.00000000E+00  0.00000000E+00  0.00000000E+00
  0.00000000E+00  0.00000000E+00  0.00000000E+00
  0.00000000E+00  0.00000000E+00  0.00000000E+00
  0.00000000E+00  0.00000000E+00  0.00000000E+00
  0.00000000E+00  0.00000000E+00  0.00000000E+00
  0.00000000E+00  0.00000000E+00  0.00000000E+00
  0.00000000E+00  0.00000000E+00  0.00000000E+00
  0.00000000E+00  0.00000000E+00  0.00000000E+00
  0.00000000E+00  0.00000000E+00  0.00000000E+00
  0.00000000E+00  0.00000000E+00  0.00000000E+00
  0.00000000E+00  0.00000000E+00  0.00000000E+00
  0.00000000E+00  0.00000000E+00  0.00000000E+00
  0.00000000E+00  0.00000000E+00  0.00000000E+00
  0.00000000E+00  0.00000000E+00  0.00000000E+00
  0.00000000E+00  0.00000000E+00  0.00000000E+00
  0.00000000E+00  0.00000000E+00  0.00000000E+00
  0.00000000E+00  0.00000000E+00  0.00000000E+00
  0.00000000E+00  0.00000000E+00  0.00000000E+00
