PtM\(2)                                 
   1.00000000000000     
    10.5600004195999997    0.0000000000000000    0.0000000000000000
     5.2800002097999998    9.1452286273999999    0.0000000000000000
     0.0000000000000000    0.0000000000000000   22.0000000000000000
   Fe   Pt   H 
    64    16     2
Selective dynamics
Direct
  0.7837171406106972  0.8705231414522671  0.3116163086617039   T   T   T
  0.0315311696169452  0.8701708593205965  0.3205140126381313   T   T   T
  0.0357584144362352  0.6189652713752537  0.3193358250823513   T   T   T
  0.8026267767292836  0.8615467289022831  0.0454892451863671   F   F   F
  0.0404195207448552  0.8617027190320172  0.0531321522045474   F   F   F
  0.0509400554688710  0.6062387638608655  0.0434550926181814   F   F   F
  0.6179624315601515  0.2089407032181825  0.1354205681000025   F   F   F
  0.3771081362849742  0.9520552039687331  0.1315154562954532   F   F   F
  0.0330576870747191  0.3712181471135529  0.3197972184997331   T   T   T
  0.0513505762289554  0.3533140917898123  0.0488741219272697   F   F   F
  0.8796363959013576  0.1964455081765166  0.1405242804454545   F   F   F
  0.9609753729953534  0.5342884442709236  0.2241704187704516   T   T   T
  0.2712384611925859  0.1275696527038257  0.3185700614568707   T   T   T
  0.5198015169221182  0.6224980039903164  0.3092136468959467   T   T   T
  0.2748893133229204  0.3740464524000365  0.3207317888022816   T   T   T
  0.2893256628225913  0.1234214636929067  0.0441537578181794   F   F   F
  0.5276420206625545  0.6272430854941717  0.0450746674136369   F   F   F
  0.2890943956913929  0.3689426548277837  0.0479302053681820   F   F   F
  0.6230886774246684  0.9589308993681485  0.1313536480500019   F   F   F
  0.7019913590523437  0.7877811288426920  0.2191787605538638   T   T   T
  0.8871502961281266  0.6953355374350920  0.1350361609363659   F   F   F
  0.6200488592634272  0.4538069531433777  0.1336872440681844   F   F   F
  0.2700248925425369  0.8761124290991331  0.3172977501940963   T   T   T
  0.2687421993710117  0.8846374397312431  0.0464864681272701   F   F   F
  0.6288621109649597  0.6995904720010202  0.1284261861000005   F   F   F
  0.2096905264896074  0.0323540113734181  0.2275240685446738   T   T   T
  0.5205297926090925  0.3751677835000822  0.3145089458900760   T   T   T
  0.5412157973262453  0.3693050226629708  0.0442518416318194   F   F   F
  0.5177997803330732  0.1296105784875687  0.3127324712831987   T   T   T
  0.5336944517523747  0.1355867285247427  0.0439851245909111   F   F   F
  0.8832888313795024  0.4470977980309314  0.1381582713954543   F   F   F
  0.1402232285351914  0.4469540011666240  0.1355590908681847   F   F   F
  0.0295426384063115  0.1222655113757778  0.3208811840743485   T   T   T
  0.0589967396284408  0.1018350567431128  0.0575243016954516   F   F   F
  0.1342935333655149  0.9375821956829213  0.1424705955181835   F   F   F
  0.4518839352560184  0.5326798728288901  0.2208824941097984   T   T   T
  0.3693613645044209  0.2161502974433560  0.1347813253954513   F   F   F
  0.1352238459015780  0.1985163722709657  0.1393178312181789   F   F   F
  0.9605996084995883  0.7820892805249110  0.2263191168861893   T   T   T
  0.7880718145799714  0.6164864102281437  0.3099708173209081   T   T   T
  0.2745962463869414  0.6224095591719530  0.3196785773382896   T   T   T
  0.8136378082480036  0.6035846078535201  0.0458125345909082   F   F   F
  0.2827328526180111  0.6136847731378765  0.0419772135318155   F   F   F
  0.3711045115008886  0.6919720544809493  0.1297637648999981   F   F   F
  0.3650899884529792  0.4537245194798061  0.1335287959590943   F   F   F
  0.2074620038624505  0.2851851606770356  0.2278491081914176   T   T   T
  0.7825526138144996  0.3682879048141413  0.3149431357918785   T   T   T
  0.7955667169556051  0.3623786591480993  0.0525784573590897   F   F   F
  0.9596907223052505  0.0319600452693126  0.2295985405481914   T   T   T
  0.4498630150937503  0.7840163765372110  0.2171332193107770   T   T   T
  0.7028411937676833  0.5368119002538971  0.2217654162951841   T   T   T
  0.2113389255287277  0.7765150741138980  0.2278504368981162   T   T   T
  0.4491161587994862  0.0398303667269011  0.2197913243202289   T   T   T
  0.1365430804763790  0.6811498989906610  0.1363537004090887   F   F   F
  0.7007461694113144  0.0392277792137337  0.2241656021714463   T   T   T
  0.7799914977603002  0.1215129110415654  0.3161511513846997   T   T   T
  0.5173482249476055  0.8777253111533345  0.3071710718869845   T   T   T
  0.7932310882983060  0.1130335594347969  0.0506874096272725   F   F   F
  0.5386045560987753  0.8807280389435022  0.0462069311772737   F   F   F
  0.2100077933133107  0.5301365778076632  0.2290787535356395   T   T   T
  0.9595294730071878  0.2842288820524391  0.2281527273495112   T   T   T
  0.8774744330611171  0.9478040731130761  0.1404896949318157   F   F   F
  0.7038893793722816  0.2869328813138335  0.2250254518005790   T   T   T
  0.4515156093792468  0.2881383446244732  0.2238317363838811   T   T   T
  0.8606482048124109  0.9558598982638598  0.4135492539009374   T   T   T
  0.1116922598628959  0.4560405320572637  0.4185527023196622   T   T   T
  0.1115758538588781  0.9559365016337903  0.4180433454592879   T   T   T
  0.8606752777419797  0.4568721344523909  0.4125058299990349   T   T   T
  0.3623523008179198  0.9553082415077334  0.4119653926405643   T   T   T
  0.8608054854737042  0.2061632472062767  0.4152668294639097   T   T   T
  0.1113076179279562  0.2062552623062271  0.4182638105383512   T   T   T
  0.6108726043051574  0.9555394729353726  0.4058669720161421   T   T   T
  0.8607890082820789  0.7062386939701577  0.4107318664993246   T   T   T
  0.3619021528205315  0.2053218132937040  0.4155506882355454   T   T   T
  0.3623846638630406  0.7059419565307866  0.4129791974043977   T   T   T
  0.6109446634154547  0.4566469595685688  0.4092145335933404   T   T   T
  0.1117939801902810  0.7056776277409483  0.4182802091661365   T   T   T
  0.6108156527432299  0.2058856972654454  0.4109456649259474   T   T   T
  0.3618845423000967  0.4556587023380455  0.4164217056308945   T   T   T
  0.6112533416790902  0.7061097452575384  0.4034063253116054   T   T   T
  0.4749437375497826  0.5562212733077182  0.5516869431925672   T   T   T
  0.5177589745987077  0.5956912726146681  0.5526189371728581   T   T   T
 
  0.00000000E+00  0.00000000E+00  0.00000000E+00
  0.00000000E+00  0.00000000E+00  0.00000000E+00
  0.00000000E+00  0.00000000E+00  0.00000000E+00
  0.00000000E+00  0.00000000E+00  0.00000000E+00
  0.00000000E+00  0.00000000E+00  0.00000000E+00
  0.00000000E+00  0.00000000E+00  0.00000000E+00
  0.00000000E+00  0.00000000E+00  0.00000000E+00
  0.00000000E+00  0.00000000E+00  0.00000000E+00
  0.00000000E+00  0.00000000E+00  0.00000000E+00
  0.00000000E+00  0.00000000E+00  0.00000000E+00
  0.00000000E+00  0.00000000E+00  0.00000000E+00
  0.00000000E+00  0.00000000E+00  0.00000000E+00
  0.00000000E+00  0.00000000E+00  0.00000000E+00
  0.00000000E+00  0.00000000E+00  0.00000000E+00
  0.00000000E+00  0.00000000E+00  0.00000000E+00
  0.00000000E+00  0.00000000E+00  0.00000000E+00
  0.00000000E+00  0.00000000E+00  0.00000000E+00
  0.00000000E+00  0.00000000E+00  0.00000000E+00
  0.00000000E+00  0.00000000E+00  0.00000000E+00
  0.00000000E+00  0.00000000E+00  0.00000000E+00
  0.00000000E+00  0.00000000E+00  0.00000000E+00
  0.00000000E+00  0.00000000E+00  0.00000000E+00
  0.00000000E+00  0.00000000E+00  0.00000000E+00
  0.00000000E+00  0.00000000E+00  0.00000000E+00
  0.00000000E+00  0.00000000E+00  0.00000000E+00
  0.00000000E+00  0.00000000E+00  0.00000000E+00
  0.00000000E+00  0.00000000E+00  0.00000000E+00
  0.00000000E+00  0.00000000E+00  0.00000000E+00
  0.00000000E+00  0.00000000E+00  0.00000000E+00
  0.00000000E+00  0.00000000E+00  0.00000000E+00
  0.00000000E+00  0.00000000E+00  0.00000000E+00
  0.00000000E+00  0.00000000E+00  0.00000000E+00
  0.00000000E+00  0.00000000E+00  0.00000000E+00
  0.00000000E+00  0.00000000E+00  0.00000000E+00
  0.00000000E+00  0.00000000E+00  0.00000000E+00
  0.00000000E+00  0.00000000E+00  0.00000000E+00
  0.00000000E+00  0.00000000E+00  0.00000000E+00
  0.00000000E+00  0.00000000E+00  0.00000000E+00
  0.00000000E+00  0.00000000E+00  0.00000000E+00
  0.00000000E+00  0.00000000E+00  0.00000000E+00
  0.00000000E+00  0.00000000E+00  0.00000000E+00
  0.00000000E+00  0.00000000E+00  0.00000000E+00
  0.00000000E+00  0.00000000E+00  0.00000000E+00
  0.00000000E+00  0.00000000E+00  0.00000000E+00
  0.00000000E+00  0.00000000E+00  0.00000000E+00
  0.00000000E+00  0.00000000E+00  0.00000000E+00
  0.00000000E+00  0.00000000E+00  0.00000000E+00
  0.00000000E+00  0.00000000E+00  0.00000000E+00
  0.00000000E+00  0.00000000E+00  0.00000000E+00
  0.00000000E+00  0.00000000E+00  0.00000000E+00
  0.00000000E+00  0.00000000E+00  0.00000000E+00
  0.00000000E+00  0.00000000E+00  0.00000000E+00
  0.00000000E+00  0.00000000E+00  0.00000000E+00
  0.00000000E+00  0.00000000E+00  0.00000000E+00
  0.00000000E+00  0.00000000E+00  0.00000000E+00
  0.00000000E+00  0.00000000E+00  0.00000000E+00
  0.00000000E+00  0.00000000E+00  0.00000000E+00
  0.00000000E+00  0.00000000E+00  0.00000000E+00
  0.00000000E+00  0.00000000E+00  0.00000000E+00
  0.00000000E+00  0.00000000E+00  0.00000000E+00
  0.00000000E+00  0.00000000E+00  0.00000000E+00
  0.00000000E+00  0.00000000E+00  0.00000000E+00
  0.00000000E+00  0.00000000E+00  0.00000000E+00
  0.00000000E+00  0.00000000E+00  0.00000000E+00
  0.00000000E+00  0.00000000E+00  0.00000000E+00
  0.00000000E+00  0.00000000E+00  0.00000000E+00
  0.00000000E+00  0.00000000E+00  0.00000000E+00
  0.00000000E+00  0.00000000E+00  0.00000000E+00
  0.00000000E+00  0.00000000E+00  0.00000000E+00
  0.00000000E+00  0.00000000E+00  0.00000000E+00
  0.00000000E+00  0.00000000E+00  0.00000000E+00
  0.00000000E+00  0.00000000E+00  0.00000000E+00
  0.00000000E+00  0.00000000E+00  0.00000000E+00
  0.00000000E+00  0.00000000E+00  0.00000000E+00
  0.00000000E+00  0.00000000E+00  0.00000000E+00
  0.00000000E+00  0.00000000E+00  0.00000000E+00
  0.00000000E+00  0.00000000E+00  0.00000000E+00
  0.00000000E+00  0.00000000E+00  0.00000000E+00
  0.00000000E+00  0.00000000E+00  0.00000000E+00
  0.00000000E+00  0.00000000E+00  0.00000000E+00
  0.00000000E+00  0.00000000E+00  0.00000000E+00
  0.00000000E+00  0.00000000E+00  0.00000000E+00
