Pt   H                                  
   1.00000000000000     
    11.2227001190000006    0.0000000000000000    0.0000000000000000
     5.6113500595000003    9.7191434021000003    0.0000000000000000
     0.0000000000000000    0.0000000000000000   22.0000000000000000
   Pt   H 
    80     2
Direct
  0.7851471915655192  0.8690925520633244  0.3269742402947849
  0.0351684548838046  0.8688794447504126  0.3271959398924607
  0.0355815243389683  0.6186683958934744  0.3267427815088928
  0.7856980905726888  0.8685493390547491  0.0230542421069050
  0.0360865959957478  0.8684199881889247  0.0231126397694530
  0.0359198030183782  0.6184127245640316  0.0229034361766489
  0.6187798267990846  0.2020519407907453  0.1262440545419620
  0.3684142583168393  0.9521321582758696  0.1264697046766093
  0.0348279065366689  0.3687699036841183  0.3269765060758072
  0.0358098862430573  0.3685787074714654  0.0230575841134423
  0.8688937065923671  0.2020139208760814  0.1265331337505187
  0.9520383487167017  0.5354051717338680  0.2265681375361547
  0.2847418093782339  0.1187277997804451  0.3270439960676340
  0.5353720573273686  0.6190886398904999  0.3273041224523062
  0.2847938434383097  0.3686684197302890  0.3262756635396354
  0.2858461923051591  0.1184841110110032  0.0230938534709830
  0.5357992924962690  0.6184814779558557  0.0229956921040030
  0.2856609670217634  0.3684380058545139  0.0228816163963618
  0.6185826652454691  0.9521165357708175  0.1262284980056432
  0.7019587676473165  0.7854434666690637  0.2265023904483283
  0.8689722958586065  0.7017907826626271  0.1261745779993637
  0.6188833124144126  0.4519556210447837  0.1263605471627226
  0.2861077983607831  0.8671220230168031  0.3282741976402496
  0.2856225360908563  0.8688545075696977  0.0230422905269526
  0.6188026425157012  0.7020294422679544  0.1261393909910797
  0.2020747522045573  0.0341755093691676  0.2273316710357849
  0.8684490522249050  0.9525551110616898  0.4306317641842682
  0.1181048032543348  0.4523057636389677  0.4302375491892362
  0.1170095952494368  0.9538642491746855  0.4308364527830137
  0.8700915738457927  0.4525587252583667  0.4305996757771098
  0.3683143131859489  0.9543668595772088  0.4306397834846154
  0.8695815329658598  0.2012241005324284  0.4308295310025421
  0.1182394818372170  0.2026116175822182  0.4305862929538729
  0.6184986090060157  0.9535354977710462  0.4303839172507312
  0.8692515982768394  0.7027811862961991  0.4303321023759698
  0.3681023708772591  0.2023926314145826  0.4302783422343689
  0.3667245218798133  0.7051191018489033  0.4316682032087081
  0.6211175059525809  0.4506616873792746  0.4315898462156221
  0.1170229265529811  0.7029175062117324  0.4303226807207512
  0.6186660103674470  0.2012157806440127  0.4303706920452182
  0.5348893268937657  0.3693088184316224  0.3275126905829223
  0.5357827389416548  0.3687186030216710  0.0229844977993833
  0.5347956460944185  0.1193538183793659  0.3267764460831012
  0.5357583320372247  0.1185426027629984  0.0229251353774899
  0.8689904101715653  0.4515578519994989  0.1264377484046124
  0.1189082005573160  0.4517082729828999  0.1262133181617413
  0.0349614830744235  0.1188281569399895  0.3272131494656499
  0.0359276144307458  0.1186099612946784  0.0232190383027584
  0.1188078564114594  0.9520269332162959  0.1265391782665597
  0.3661873848507746  0.4503703913884343  0.4296181104735789
  0.4520002007114087  0.5355249175200301  0.2269492987950923
  0.6210367796458669  0.7052944229363988  0.4293963591434701
  0.3685662553572848  0.2020870905724848  0.1262109387492522
  0.1186411882455262  0.2018149375362237  0.1267561024840635
  0.9519593787788295  0.7855159816259680  0.2265707629461774
  0.7856930335168131  0.6187818164568127  0.3268017518372809
  0.2855159752435965  0.6186819049150729  0.3275070380922346
  0.7857669056712880  0.6183196031681972  0.0229813066142488
  0.2860621793588710  0.6184891513824704  0.0230124639940125
  0.3688588122762612  0.7020650874830073  0.1263592977884521
  0.3689308704619196  0.4520187209582665  0.1261984142874996
  0.2016180467515329  0.2850743722612626  0.2266995175946943
  0.7833221398612812  0.3700207417920759  0.3282051933655244
  0.7860182535862265  0.3684703993068485  0.0230254195291925
  0.9516444816245313  0.0352457966312827  0.2268554836915152
  0.4519498312775509  0.7854217186848307  0.2266954907514857
  0.7019095559930244  0.5355091562185061  0.2266637072206764
  0.2022566552611934  0.7851361793704328  0.2269697879528409
  0.4517292762651212  0.0356363154101625  0.2266132612535899
  0.1188591035644107  0.7019942195534943  0.1262099775145908
  0.7019524589447413  0.0354951292431812  0.2266031288144593
  0.7849932975699098  0.1190085543069084  0.3272353906303301
  0.5348518808688063  0.8695455333752947  0.3268018779068890
  0.7856537517005483  0.1188716419648238  0.0231457061548679
  0.5356211748414395  0.8684771422804515  0.0229936227266233
  0.2021387350596497  0.5357328662041582  0.2263634628629013
  0.9506824751251129  0.2856164640082057  0.2273029733716140
  0.8688540402475340  0.9519943998009254  0.1262278593133510
  0.7016756289640597  0.2857136151619263  0.2269816677593126
  0.4522033312059026  0.2856201669027708  0.2263929123840659
  0.4720095029995195  0.5569821606135408  0.5100642917872509
  0.5139060941960494  0.5992760526040541  0.5102924048680960
 
  0.00000000E+00  0.00000000E+00  0.00000000E+00
  0.00000000E+00  0.00000000E+00  0.00000000E+00
  0.00000000E+00  0.00000000E+00  0.00000000E+00
  0.00000000E+00  0.00000000E+00  0.00000000E+00
  0.00000000E+00  0.00000000E+00  0.00000000E+00
  0.00000000E+00  0.00000000E+00  0.00000000E+00
  0.00000000E+00  0.00000000E+00  0.00000000E+00
  0.00000000E+00  0.00000000E+00  0.00000000E+00
  0.00000000E+00  0.00000000E+00  0.00000000E+00
  0.00000000E+00  0.00000000E+00  0.00000000E+00
  0.00000000E+00  0.00000000E+00  0.00000000E+00
  0.00000000E+00  0.00000000E+00  0.00000000E+00
  0.00000000E+00  0.00000000E+00  0.00000000E+00
  0.00000000E+00  0.00000000E+00  0.00000000E+00
  0.00000000E+00  0.00000000E+00  0.00000000E+00
  0.00000000E+00  0.00000000E+00  0.00000000E+00
  0.00000000E+00  0.00000000E+00  0.00000000E+00
  0.00000000E+00  0.00000000E+00  0.00000000E+00
  0.00000000E+00  0.00000000E+00  0.00000000E+00
  0.00000000E+00  0.00000000E+00  0.00000000E+00
  0.00000000E+00  0.00000000E+00  0.00000000E+00
  0.00000000E+00  0.00000000E+00  0.00000000E+00
  0.00000000E+00  0.00000000E+00  0.00000000E+00
  0.00000000E+00  0.00000000E+00  0.00000000E+00
  0.00000000E+00  0.00000000E+00  0.00000000E+00
  0.00000000E+00  0.00000000E+00  0.00000000E+00
  0.00000000E+00  0.00000000E+00  0.00000000E+00
  0.00000000E+00  0.00000000E+00  0.00000000E+00
  0.00000000E+00  0.00000000E+00  0.00000000E+00
  0.00000000E+00  0.00000000E+00  0.00000000E+00
  0.00000000E+00  0.00000000E+00  0.00000000E+00
  0.00000000E+00  0.00000000E+00  0.00000000E+00
  0.00000000E+00  0.00000000E+00  0.00000000E+00
  0.00000000E+00  0.00000000E+00  0.00000000E+00
  0.00000000E+00  0.00000000E+00  0.00000000E+00
  0.00000000E+00  0.00000000E+00  0.00000000E+00
  0.00000000E+00  0.00000000E+00  0.00000000E+00
  0.00000000E+00  0.00000000E+00  0.00000000E+00
  0.00000000E+00  0.00000000E+00  0.00000000E+00
  0.00000000E+00  0.00000000E+00  0.00000000E+00
  0.00000000E+00  0.00000000E+00  0.00000000E+00
  0.00000000E+00  0.00000000E+00  0.00000000E+00
  0.00000000E+00  0.00000000E+00  0.00000000E+00
  0.00000000E+00  0.00000000E+00  0.00000000E+00
  0.00000000E+00  0.00000000E+00  0.00000000E+00
  0.00000000E+00  0.00000000E+00  0.00000000E+00
  0.00000000E+00  0.00000000E+00  0.00000000E+00
  0.00000000E+00  0.00000000E+00  0.00000000E+00
  0.00000000E+00  0.00000000E+00  0.00000000E+00
  0.00000000E+00  0.00000000E+00  0.00000000E+00
  0.00000000E+00  0.00000000E+00  0.00000000E+00
  0.00000000E+00  0.00000000E+00  0.00000000E+00
  0.00000000E+00  0.00000000E+00  0.00000000E+00
  0.00000000E+00  0.00000000E+00  0.00000000E+00
  0.00000000E+00  0.00000000E+00  0.00000000E+00
  0.00000000E+00  0.00000000E+00  0.00000000E+00
  0.00000000E+00  0.00000000E+00  0.00000000E+00
  0.00000000E+00  0.00000000E+00  0.00000000E+00
  0.00000000E+00  0.00000000E+00  0.00000000E+00
  0.00000000E+00  0.00000000E+00  0.00000000E+00
  0.00000000E+00  0.00000000E+00  0.00000000E+00
  0.00000000E+00  0.00000000E+00  0.00000000E+00
  0.00000000E+00  0.00000000E+00  0.00000000E+00
  0.00000000E+00  0.00000000E+00  0.00000000E+00
  0.00000000E+00  0.00000000E+00  0.00000000E+00
  0.00000000E+00  0.00000000E+00  0.00000000E+00
  0.00000000E+00  0.00000000E+00  0.00000000E+00
  0.00000000E+00  0.00000000E+00  0.00000000E+00
  0.00000000E+00  0.00000000E+00  0.00000000E+00
  0.00000000E+00  0.00000000E+00  0.00000000E+00
  0.00000000E+00  0.00000000E+00  0.00000000E+00
  0.00000000E+00  0.00000000E+00  0.00000000E+00
  0.00000000E+00  0.00000000E+00  0.00000000E+00
  0.00000000E+00  0.00000000E+00  0.00000000E+00
  0.00000000E+00  0.00000000E+00  0.00000000E+00
  0.00000000E+00  0.00000000E+00  0.00000000E+00
  0.00000000E+00  0.00000000E+00  0.00000000E+00
  0.00000000E+00  0.00000000E+00  0.00000000E+00
  0.00000000E+00  0.00000000E+00  0.00000000E+00
  0.00000000E+00  0.00000000E+00  0.00000000E+00
  0.00000000E+00  0.00000000E+00  0.00000000E+00
  0.00000000E+00  0.00000000E+00  0.00000000E+00
