Pt   Cu   Ni   Fe   Co   H              
   1.00000000000000     
    10.5600004195999997    0.0000000000000000    0.0000000000000000
     5.2800002097999998    9.1452286273999999    0.0000000000000000
     0.0000000000000000    0.0000000000000000   22.0000000000000000
   Pt   Cu   Ni   Fe   Co   H 
    32    13    10    13    12     1
Selective dynamics
Direct
  0.7910017590105283  0.8750708221254661  0.3163775607074048   T   T   T
  0.0445159137728624  0.8811113550261789  0.3159396362013761   T   T   T
  0.2878985593000559  0.3778653516969468  0.3198635072286947   T   T   T
  0.8787824485400949  0.9579206352224368  0.4237494719694080   T   T   T
  0.1280456235421487  0.4564279855120193  0.4267229063009672   T   T   T
  0.1294408182145568  0.9579441310883643  0.4216822967485870   T   T   T
  0.8801983186943558  0.4542552841410847  0.4217436001950365   T   T   T
  0.3776225600270056  0.9571150992738860  0.4183336769548395   T   T   T
  0.8772934619969242  0.2084054664512311  0.4223380411600108   T   T   T
  0.1291105145000787  0.2070005244818339  0.4229087060322252   T   T   T
  0.6249381255557475  0.9602321169314626  0.4236785263139088   T   T   T
  0.8814142895580803  0.7059113538876399  0.4311503439650711   T   T   T
  0.3766102590475409  0.2077401318981873  0.4274204675379594   T   T   T
  0.3786104568522031  0.7085859704890759  0.4262481341416449   T   T   T
  0.6288570423422180  0.4574893396647672  0.4239552827542343   T   T   T
  0.1277380215388777  0.7080282749397913  0.4256439124167609   T   T   T
  0.6280251276791002  0.2075377472621459  0.4249058624337485   T   T   T
  0.5548647364969947  0.3703037262675059  0.3176020490410426   T   T   T
  0.5388275418812771  0.1210125089040030  0.3150213930581096   T   T   T
  0.5474557691032089  0.1224145471164988  0.0383540260045478   F   F   F
  0.1236064448242544  0.4619868652207941  0.1274066645318186   F   F   F
  0.0406906599182445  0.1344733573566845  0.3132481884674588   T   T   T
  0.0323512895519684  0.1348251109224066  0.0344153389136395   F   F   F
  0.1267130615797001  0.9548495891329765  0.1316270848000016   F   F   F
  0.3772169701716685  0.4588965415348334  0.4264316252638558   T   T   T
  0.4577929944478427  0.5456247416986244  0.2200856014136363   F   F   F
  0.6245047918866543  0.7074512236440249  0.4302575363040304   T   T   T
  0.9641386328546346  0.7927262172516194  0.2176139731681843   F   F   F
  0.7878408023962896  0.6243679928667188  0.3199558079619331   T   T   T
  0.2937872870862349  0.6311149409175735  0.3193097670338355   T   T   T
  0.2112359165491497  0.2837402313404738  0.2226962608636356   F   F   F
  0.7170982237511581  0.5368531721328651  0.2205881042545457   F   F   F
  0.0406481531481177  0.6243684104999643  0.3217073905237097   T   T   T
  0.7972000438328166  0.8697589236827383  0.0374023497136378   F   F   F
  0.0440625835034183  0.8722191461787219  0.0345072269909110   F   F   F
  0.0392610792287442  0.6311846045166689  0.0351220357090938   F   F   F
  0.6257475188796491  0.2142350187539250  0.1326781676272759   F   F   F
  0.3760834871882253  0.9610439443107381  0.1305574189681806   F   F   F
  0.0406453101131575  0.3798178816834610  0.3202976812071036   T   T   T
  0.0396170568831593  0.3768031419767439  0.0334889225727295   F   F   F
  0.8676193552394906  0.2152196349365170  0.1309720674090897   F   F   F
  0.9596267895245916  0.5454269423352969  0.2247318812727244   F   F   F
  0.2929920742427523  0.1197364633069987  0.3194652830063640   T   T   T
  0.5405676160964918  0.6313549349479542  0.3220943702996491   T   T   T
  0.2917831490269052  0.1260602338629297  0.0372542039999999   F   F   F
  0.5454515139348999  0.6259782464101775  0.0420624231136344   F   F   F
  0.3067879116385299  0.3735680389951384  0.0391298778454541   F   F   F
  0.6278828336866127  0.9518576864791655  0.1326303949409109   F   F   F
  0.7014205873461066  0.7982020760125437  0.2228083038681845   F   F   F
  0.8663351732921925  0.7104737684778044  0.1283473372272752   F   F   F
  0.6246753788169244  0.4577386687586937  0.1281447755045448   F   F   F
  0.3011547616629999  0.8756340533563750  0.3161021305715426   T   T   T
  0.3061509070593971  0.8669645173489897  0.0394945869454517   F   F   F
  0.6189298912310122  0.7160352078547945  0.1315782563727268   F   F   F
  0.2158013217278736  0.0346202722424493  0.2239695528954542   F   F   F
  0.5413003481162377  0.3854934694292353  0.0392421232909115   F   F   F
  0.3793596896688101  0.2077414937564157  0.1304859276181816   F   F   F
  0.1397005988927233  0.7004273062357669  0.1260118729227244   F   F   F
  0.7032928047068907  0.0430698299351278  0.2223786639500034   F   F   F
  0.7953060117552977  0.1257232326380708  0.3229968767539881   T   T   T
  0.5398350350608400  0.8732828822106679  0.3177172698587410   T   T   T
  0.7886637734805362  0.1316311679178028  0.0356870601590913   F   F   F
  0.5500230713442207  0.8647745424215145  0.0409676415136389   F   F   F
  0.2133428810521139  0.5401467028500520  0.2246093103863629   F   F   F
  0.9628013650069889  0.2896499814519231  0.2215883351272723   F   F   F
  0.8674074857836018  0.9664102647932040  0.1274066662954567   F   F   F
  0.7175321873646183  0.2868729996907575  0.2245318191636372   F   F   F
  0.4591571903798268  0.2930458401412253  0.2237691903681807   F   F   F
  0.8738730802821166  0.4568980253572903  0.1267729113318197   F   F   F
  0.1172650635095778  0.2104917527411558  0.1300894581727263   F   F   F
  0.7847808401012983  0.6256565767374056  0.0430916531090944   F   F   F
  0.3044675991730514  0.6228429328419551  0.0413873785499987   F   F   F
  0.3774641631786082  0.7058247950696810  0.1277445443409064   F   F   F
  0.3790290951972111  0.4600384977577221  0.1289947120409067   F   F   F
  0.7960405315855290  0.3704398453806433  0.3191628721969618   T   T   T
  0.7878239818798747  0.3875206431014675  0.0411156729818174   F   F   F
  0.9438556562023948  0.0510421196689848  0.2234485127000028   F   F   F
  0.4570233967922803  0.8026344196806434  0.2250269443545463   F   F   F
  0.2162964734646451  0.7953313450368995  0.2247401188045473   F   F   F
  0.4610885657498471  0.0339352508881134  0.2216139020181842   F   F   F
  0.7380579402511400  0.7368376785608399  0.4796851142069725   T   T   T
 
  0.00000000E+00  0.00000000E+00  0.00000000E+00
  0.00000000E+00  0.00000000E+00  0.00000000E+00
  0.00000000E+00  0.00000000E+00  0.00000000E+00
  0.00000000E+00  0.00000000E+00  0.00000000E+00
  0.00000000E+00  0.00000000E+00  0.00000000E+00
  0.00000000E+00  0.00000000E+00  0.00000000E+00
  0.00000000E+00  0.00000000E+00  0.00000000E+00
  0.00000000E+00  0.00000000E+00  0.00000000E+00
  0.00000000E+00  0.00000000E+00  0.00000000E+00
  0.00000000E+00  0.00000000E+00  0.00000000E+00
  0.00000000E+00  0.00000000E+00  0.00000000E+00
  0.00000000E+00  0.00000000E+00  0.00000000E+00
  0.00000000E+00  0.00000000E+00  0.00000000E+00
  0.00000000E+00  0.00000000E+00  0.00000000E+00
  0.00000000E+00  0.00000000E+00  0.00000000E+00
  0.00000000E+00  0.00000000E+00  0.00000000E+00
  0.00000000E+00  0.00000000E+00  0.00000000E+00
  0.00000000E+00  0.00000000E+00  0.00000000E+00
  0.00000000E+00  0.00000000E+00  0.00000000E+00
  0.00000000E+00  0.00000000E+00  0.00000000E+00
  0.00000000E+00  0.00000000E+00  0.00000000E+00
  0.00000000E+00  0.00000000E+00  0.00000000E+00
  0.00000000E+00  0.00000000E+00  0.00000000E+00
  0.00000000E+00  0.00000000E+00  0.00000000E+00
  0.00000000E+00  0.00000000E+00  0.00000000E+00
  0.00000000E+00  0.00000000E+00  0.00000000E+00
  0.00000000E+00  0.00000000E+00  0.00000000E+00
  0.00000000E+00  0.00000000E+00  0.00000000E+00
  0.00000000E+00  0.00000000E+00  0.00000000E+00
  0.00000000E+00  0.00000000E+00  0.00000000E+00
  0.00000000E+00  0.00000000E+00  0.00000000E+00
  0.00000000E+00  0.00000000E+00  0.00000000E+00
  0.00000000E+00  0.00000000E+00  0.00000000E+00
  0.00000000E+00  0.00000000E+00  0.00000000E+00
  0.00000000E+00  0.00000000E+00  0.00000000E+00
  0.00000000E+00  0.00000000E+00  0.00000000E+00
  0.00000000E+00  0.00000000E+00  0.00000000E+00
  0.00000000E+00  0.00000000E+00  0.00000000E+00
  0.00000000E+00  0.00000000E+00  0.00000000E+00
  0.00000000E+00  0.00000000E+00  0.00000000E+00
  0.00000000E+00  0.00000000E+00  0.00000000E+00
  0.00000000E+00  0.00000000E+00  0.00000000E+00
  0.00000000E+00  0.00000000E+00  0.00000000E+00
  0.00000000E+00  0.00000000E+00  0.00000000E+00
  0.00000000E+00  0.00000000E+00  0.00000000E+00
  0.00000000E+00  0.00000000E+00  0.00000000E+00
  0.00000000E+00  0.00000000E+00  0.00000000E+00
  0.00000000E+00  0.00000000E+00  0.00000000E+00
  0.00000000E+00  0.00000000E+00  0.00000000E+00
  0.00000000E+00  0.00000000E+00  0.00000000E+00
  0.00000000E+00  0.00000000E+00  0.00000000E+00
  0.00000000E+00  0.00000000E+00  0.00000000E+00
  0.00000000E+00  0.00000000E+00  0.00000000E+00
  0.00000000E+00  0.00000000E+00  0.00000000E+00
  0.00000000E+00  0.00000000E+00  0.00000000E+00
  0.00000000E+00  0.00000000E+00  0.00000000E+00
  0.00000000E+00  0.00000000E+00  0.00000000E+00
  0.00000000E+00  0.00000000E+00  0.00000000E+00
  0.00000000E+00  0.00000000E+00  0.00000000E+00
  0.00000000E+00  0.00000000E+00  0.00000000E+00
  0.00000000E+00  0.00000000E+00  0.00000000E+00
  0.00000000E+00  0.00000000E+00  0.00000000E+00
  0.00000000E+00  0.00000000E+00  0.00000000E+00
  0.00000000E+00  0.00000000E+00  0.00000000E+00
  0.00000000E+00  0.00000000E+00  0.00000000E+00
  0.00000000E+00  0.00000000E+00  0.00000000E+00
  0.00000000E+00  0.00000000E+00  0.00000000E+00
  0.00000000E+00  0.00000000E+00  0.00000000E+00
  0.00000000E+00  0.00000000E+00  0.00000000E+00
  0.00000000E+00  0.00000000E+00  0.00000000E+00
  0.00000000E+00  0.00000000E+00  0.00000000E+00
  0.00000000E+00  0.00000000E+00  0.00000000E+00
  0.00000000E+00  0.00000000E+00  0.00000000E+00
  0.00000000E+00  0.00000000E+00  0.00000000E+00
  0.00000000E+00  0.00000000E+00  0.00000000E+00
  0.00000000E+00  0.00000000E+00  0.00000000E+00
  0.00000000E+00  0.00000000E+00  0.00000000E+00
  0.00000000E+00  0.00000000E+00  0.00000000E+00
  0.00000000E+00  0.00000000E+00  0.00000000E+00
  0.00000000E+00  0.00000000E+00  0.00000000E+00
  0.00000000E+00  0.00000000E+00  0.00000000E+00
