Pt111                                   
   1.00000000000000     
    11.1599999990000001    0.0000000000000000    0.0000000000000000
     5.5799999999000001    9.6648433740000037    0.0000000000000000
     0.0000000000000000    0.0000000000000000   22.0000000000000000
   Pt   H 
    80     1
Selective dynamics
Direct
  0.7847956719441359  0.8692941179150947  0.3276634720020969   T   T   T
  0.0348417736112429  0.8695857961114526  0.3274883115029259   T   T   T
  0.0350677424428582  0.6192044656507533  0.3275283277553774   T   T   T
  0.7874635770555685  0.8673889342534125  0.0217817540681793   F   F   F
  0.0369039185719657  0.8681209364624749  0.0219380647000023   F   F   F
  0.0372089304241641  0.6176234070547082  0.0220437856227278   F   F   F
  0.6194850800515113  0.2017381177893895  0.1255108009136379   F   F   F
  0.3694946185975070  0.9517446250029593  0.1255303530454555   F   F   F
  0.0346957979953268  0.3695590177479124  0.3275445465193861   T   T   T
  0.0370287718674192  0.3676012948805365  0.0220738952363604   F   F   F
  0.8694533717269266  0.2019061435335345  0.1254481768045466   F   F   F
  0.9518933244005332  0.5357092899572998  0.2267180548196783   T   T   T
  0.2847431793762818  0.1196665238670615  0.3274925122428352   T   T   T
  0.5342722427871395  0.6193642090028778  0.3289897413507226   T   T   T
  0.2852654370557035  0.3700703179449748  0.3281154052989381   T   T   T
  0.2876023430905903  0.1176072581018559  0.0219911206136345   F   F   F
  0.5367960557868514  0.6176868648238880  0.0218969956454558   F   F   F
  0.2869476318717190  0.3679096809024003  0.0220519038681815   F   F   F
  0.6193062717494300  0.9517408507152041  0.1254443523590894   F   F   F
  0.7018876185475252  0.7854578551335984  0.2263643212934601   T   T   T
  0.8692425852899390  0.7017636494809452  0.1255208504909078   F   F   F
  0.6192754204004771  0.4518762582070153  0.1255288801045467   F   F   F
  0.2849970549958294  0.8689634000623093  0.3280682826304667   T   T   T
  0.2871818341067822  0.8676401971043433  0.0218936289000027   F   F   F
  0.6190283787444244  0.7018389814518713  0.1254338009545464   F   F   F
  0.2020075478900978  0.0357205548463624  0.2265624725815300   T   T   T
  0.8676094203246166  0.9535789987577623  0.4312216514821813   T   T   T
  0.1169731129676723  0.4535950557186770  0.4311861822822697   T   T   T
  0.1163697743040823  0.9543878849502835  0.4310869628901411   T   T   T
  0.8680194032426904  0.4534575829362925  0.4311987271058295   T   T   T
  0.3677402858551460  0.9543094778534787  0.4310964369924110   T   T   T
  0.8675712473367113  0.2030107431010248  0.4311731541115743   T   T   T
  0.1174460243344156  0.2035711727653287  0.4310512709842220   T   T   T
  0.6171905691421569  0.9536992772202243  0.4312047096313676   T   T   T
  0.8678392453856302  0.7026600677686168  0.4312310615860880   T   T   T
  0.3678215302902939  0.2030952652298899  0.4311913488445339   T   T   T
  0.3640832229100853  0.7099867243558666  0.4333485526040280   T   T   T
  0.6227929235638333  0.4510003743442205  0.4333497423929800   T   T   T
  0.1139681644043602  0.7053515802598604  0.4310922742119185   T   T   T
  0.6190575600342728  0.2002598611486626  0.4311789635057584   T   T   T
  0.5344430240784208  0.3701820171534012  0.3289706218938103   T   T   T
  0.5375756556533560  0.3672664199969233  0.0219042253318165   F   F   F
  0.5347010799269935  0.1196505335798954  0.3275247706138316   T   T   T
  0.5372883261843029  0.1177018121742393  0.0218628131363658   F   F   F
  0.8692491279384456  0.4519191292690650  0.1255880297318157   F   F   F
  0.1193197257906817  0.4518318627850348  0.1256672251272732   F   F   F
  0.0345539215552055  0.1196631634505371  0.3274616326116054   T   T   T
  0.0373829550564153  0.1176937196271624  0.0219013216772694   F   F   F
  0.1193614845209936  0.9519178075197630  0.1255518159227265   F   F   F
  0.3646458532863608  0.4513007123161792  0.4333121444025675   T   T   T
  0.4519986434618810  0.5356627514881643  0.2271895493051859   T   T   T
  0.6191181769052022  0.7053860155632496  0.4310908258976173   T   T   T
  0.3694565376361183  0.2019280643854131  0.1256300756818192   F   F   F
  0.1195835971385009  0.2018115596727696  0.1255983173863626   F   F   F
  0.9520176295387831  0.7855658545004046  0.2264217266745388   T   T   T
  0.7847045946577154  0.6191440788869838  0.3275129765732064   T   T   T
  0.2853611748153376  0.6194206641455009  0.3289553776998153   T   T   T
  0.7869423602712828  0.6177860298245932  0.0218795503363651   F   F   F
  0.2870662090971976  0.6176174985885510  0.0219679548363629   F   F   F
  0.3690460114198899  0.7018993896941339  0.1255658642136339   F   F   F
  0.3694378040723265  0.4518082110515138  0.1256101804636387   F   F   F
  0.2020873695099784  0.2857527623521645  0.2266405139019329   T   T   T
  0.7836980220312416  0.3699915226287712  0.3280901900733965   T   T   T
  0.7871748366228246  0.3678317328518332  0.0218155082681832   F   F   F
  0.9518553352378120  0.0357512013896254  0.2266533802236180   T   T   T
  0.4518416799125222  0.7852843830580140  0.2267213703850303   T   T   T
  0.7015248600267148  0.5356153382682953  0.2267291288776160   T   T   T
  0.2023432452308890  0.7853584059864326  0.2267455917599047   T   T   T
  0.4519947128930859  0.0356641083831335  0.2267005177009228   T   T   T
  0.1191611970388422  0.7019593053469393  0.1255986884545450   F   F   F
  0.7019521296024265  0.0356389560252479  0.2263941838446851   T   T   T
  0.7846397015335600  0.1196473332637625  0.3275217088550140   T   T   T
  0.5346069975300131  0.8695332981578799  0.3274701452497248   T   T   T
  0.7873278505172010  0.1176277620657871  0.0218150914454540   F   F   F
  0.5373771247785655  0.8677489017733535  0.0217659130545442   F   F   F
  0.2024971700726637  0.5356412689492084  0.2267781908667488   T   T   T
  0.9518320948865748  0.2857584639658949  0.2265679971306638   T   T   T
  0.8693058877188662  0.9518715660254387  0.1255099655681846   F   F   F
  0.7016739270604645  0.2860255838843098  0.2267083072191236   T   T   T
  0.4520796178965998  0.2860635950731327  0.2267675719437316   T   T   T
  0.4511447895875177  0.5387521182901148  0.4721778495001235   T   T   T
 
  0.00000000E+00  0.00000000E+00  0.00000000E+00
  0.00000000E+00  0.00000000E+00  0.00000000E+00
  0.00000000E+00  0.00000000E+00  0.00000000E+00
  0.00000000E+00  0.00000000E+00  0.00000000E+00
  0.00000000E+00  0.00000000E+00  0.00000000E+00
  0.00000000E+00  0.00000000E+00  0.00000000E+00
  0.00000000E+00  0.00000000E+00  0.00000000E+00
  0.00000000E+00  0.00000000E+00  0.00000000E+00
  0.00000000E+00  0.00000000E+00  0.00000000E+00
  0.00000000E+00  0.00000000E+00  0.00000000E+00
  0.00000000E+00  0.00000000E+00  0.00000000E+00
  0.00000000E+00  0.00000000E+00  0.00000000E+00
  0.00000000E+00  0.00000000E+00  0.00000000E+00
  0.00000000E+00  0.00000000E+00  0.00000000E+00
  0.00000000E+00  0.00000000E+00  0.00000000E+00
  0.00000000E+00  0.00000000E+00  0.00000000E+00
  0.00000000E+00  0.00000000E+00  0.00000000E+00
  0.00000000E+00  0.00000000E+00  0.00000000E+00
  0.00000000E+00  0.00000000E+00  0.00000000E+00
  0.00000000E+00  0.00000000E+00  0.00000000E+00
  0.00000000E+00  0.00000000E+00  0.00000000E+00
  0.00000000E+00  0.00000000E+00  0.00000000E+00
  0.00000000E+00  0.00000000E+00  0.00000000E+00
  0.00000000E+00  0.00000000E+00  0.00000000E+00
  0.00000000E+00  0.00000000E+00  0.00000000E+00
  0.00000000E+00  0.00000000E+00  0.00000000E+00
  0.00000000E+00  0.00000000E+00  0.00000000E+00
  0.00000000E+00  0.00000000E+00  0.00000000E+00
  0.00000000E+00  0.00000000E+00  0.00000000E+00
  0.00000000E+00  0.00000000E+00  0.00000000E+00
  0.00000000E+00  0.00000000E+00  0.00000000E+00
  0.00000000E+00  0.00000000E+00  0.00000000E+00
  0.00000000E+00  0.00000000E+00  0.00000000E+00
  0.00000000E+00  0.00000000E+00  0.00000000E+00
  0.00000000E+00  0.00000000E+00  0.00000000E+00
  0.00000000E+00  0.00000000E+00  0.00000000E+00
  0.00000000E+00  0.00000000E+00  0.00000000E+00
  0.00000000E+00  0.00000000E+00  0.00000000E+00
  0.00000000E+00  0.00000000E+00  0.00000000E+00
  0.00000000E+00  0.00000000E+00  0.00000000E+00
  0.00000000E+00  0.00000000E+00  0.00000000E+00
  0.00000000E+00  0.00000000E+00  0.00000000E+00
  0.00000000E+00  0.00000000E+00  0.00000000E+00
  0.00000000E+00  0.00000000E+00  0.00000000E+00
  0.00000000E+00  0.00000000E+00  0.00000000E+00
  0.00000000E+00  0.00000000E+00  0.00000000E+00
  0.00000000E+00  0.00000000E+00  0.00000000E+00
  0.00000000E+00  0.00000000E+00  0.00000000E+00
  0.00000000E+00  0.00000000E+00  0.00000000E+00
  0.00000000E+00  0.00000000E+00  0.00000000E+00
  0.00000000E+00  0.00000000E+00  0.00000000E+00
  0.00000000E+00  0.00000000E+00  0.00000000E+00
  0.00000000E+00  0.00000000E+00  0.00000000E+00
  0.00000000E+00  0.00000000E+00  0.00000000E+00
  0.00000000E+00  0.00000000E+00  0.00000000E+00
  0.00000000E+00  0.00000000E+00  0.00000000E+00
  0.00000000E+00  0.00000000E+00  0.00000000E+00
  0.00000000E+00  0.00000000E+00  0.00000000E+00
  0.00000000E+00  0.00000000E+00  0.00000000E+00
  0.00000000E+00  0.00000000E+00  0.00000000E+00
  0.00000000E+00  0.00000000E+00  0.00000000E+00
  0.00000000E+00  0.00000000E+00  0.00000000E+00
  0.00000000E+00  0.00000000E+00  0.00000000E+00
  0.00000000E+00  0.00000000E+00  0.00000000E+00
  0.00000000E+00  0.00000000E+00  0.00000000E+00
  0.00000000E+00  0.00000000E+00  0.00000000E+00
  0.00000000E+00  0.00000000E+00  0.00000000E+00
  0.00000000E+00  0.00000000E+00  0.00000000E+00
  0.00000000E+00  0.00000000E+00  0.00000000E+00
  0.00000000E+00  0.00000000E+00  0.00000000E+00
  0.00000000E+00  0.00000000E+00  0.00000000E+00
  0.00000000E+00  0.00000000E+00  0.00000000E+00
  0.00000000E+00  0.00000000E+00  0.00000000E+00
  0.00000000E+00  0.00000000E+00  0.00000000E+00
  0.00000000E+00  0.00000000E+00  0.00000000E+00
  0.00000000E+00  0.00000000E+00  0.00000000E+00
  0.00000000E+00  0.00000000E+00  0.00000000E+00
  0.00000000E+00  0.00000000E+00  0.00000000E+00
  0.00000000E+00  0.00000000E+00  0.00000000E+00
  0.00000000E+00  0.00000000E+00  0.00000000E+00
  0.00000000E+00  0.00000000E+00  0.00000000E+00
