Pt111                                   
   1.00000000000000     
    11.2227001190000006    0.0000000000000000    0.0000000000000000
     5.6113500595000003    9.7191434021000003    0.0000000000000000
     0.0000000000000000    0.0000000000000000   22.0000000000000000
   Pt
    80
Direct
  0.7848781967740427  0.8692266281591874  0.3271732235437694
  0.0348706623214856  0.8692328621760789  0.3271618228749075
  0.0349301907232962  0.6191282030092258  0.3271669031216559
  0.7863996025656018  0.8682150312933419  0.0228645196528046
  0.0365358171423990  0.8680825833340650  0.0228469270117347
  0.0364954699961944  0.6181362413708279  0.0228314073384040
  0.6191332754952189  0.2019038579417673  0.1262088727431068
  0.3691436490517481  0.9518721664445983  0.1261974896093240
  0.0348373692002471  0.3691872461059987  0.3271546287960601
  0.0365137277408241  0.3681426596578023  0.0228164092323399
  0.8691761389580585  0.2018732414621189  0.1261869038820834
  0.9519215396824091  0.5356126958755143  0.2266731158468960
  0.2848230606371596  0.1192152988519948  0.3271924631959451
  0.5348814371551265  0.6191841809015599  0.3271570563078076
  0.2847976160470149  0.3692126090842485  0.3271520319361894
  0.2864278386041894  0.1181145011996653  0.0228603385407119
  0.5365744758803210  0.6181146768414610  0.0228665172476431
  0.2864680194535313  0.3681136466295051  0.0228248126739706
  0.6191447420907729  0.9519192950900953  0.1262202425440513
  0.7020211469303289  0.7855537139712208  0.2267068008170618
  0.8691978249622698  0.7019284060231589  0.1261931687220700
  0.6191864761428059  0.4518314916313312  0.1262024492043586
  0.2848222234432753  0.8692228355146200  0.3271646128958225
  0.2864626222935175  0.8680943844739798  0.0228581266858846
  0.6191638732811886  0.7019265606557361  0.1262080499926157
  0.2019693144502884  0.0355692001296492  0.2266912846016889
  0.8677586675813179  0.9527757331680042  0.4305389232119674
  0.1176578637409820  0.4527650628940338  0.4304809987655834
  0.1177645174381002  0.9527853857664439  0.4304989354706944
  0.8676740515882480  0.4528255337363049  0.4305367176740632
  0.3678290085582770  0.9527275864887522  0.4305062532710032
  0.8677116009588420  0.2028747569632880  0.4305326777629184
  0.1177143502042686  0.2027635087325204  0.4305218260841605
  0.6177225298016649  0.9528565260565005  0.4304873255369292
  0.8677921319020088  0.7028614282753626  0.4305187684937001
  0.3677052560113361  0.2028659250625996  0.4305075703686260
  0.3677252884887027  0.7028189935649517  0.4304968313570702
  0.6176496053748322  0.4528833402906945  0.4304823633854521
  0.1177527722858454  0.7027867255421398  0.4305107385846785
  0.6177045585448928  0.2028615931483715  0.4305199460875758
  0.5348606788229032  0.3692124919058984  0.3271526152142130
  0.5364782935072665  0.3681944746901490  0.0228517728595107
  0.5348282856300197  0.1192293585000821  0.3271718340132636
  0.5364859794319715  0.1181310047980458  0.0228555677372889
  0.8691868886804051  0.4518459752202315  0.1261811154221360
  0.1191444006326084  0.4518807120050088  0.1261790665946247
  0.0348598607874276  0.1191853716733035  0.3271855330983688
  0.0364823196694411  0.1180817688026544  0.0228344923129880
  0.1191331706529329  0.9518916184887490  0.1262132449985418
  0.3677500049929564  0.4527251660798032  0.4305024457409855
  0.4519338422534783  0.5356178359628452  0.2266678815314936
  0.6177241667174517  0.7028625143606438  0.4304933598097923
  0.3691447645730380  0.2018863209295071  0.1261712378051677
  0.1190887838033719  0.2019031973209083  0.1261891066839184
  0.9520010173279224  0.7855840896931787  0.2266929009952518
  0.7849073981745872  0.6191737790367910  0.3272050558699659
  0.2848811343474568  0.6191667191696356  0.3271966018504376
  0.7865135901240141  0.6181383597653615  0.0228825001468195
  0.2865216093748420  0.6181137951833096  0.0228739551406918
  0.3692174724556618  0.7018800344656635  0.1261950777244109
  0.3691839864660531  0.4518147683918375  0.1261705274095428
  0.2019943842644808  0.2855318693981304  0.2266637970345031
  0.7848332728138211  0.3692050569403684  0.3271708272851498
  0.7864521857010101  0.3681644703557575  0.0228507539672114
  0.9519040846789342  0.0356329556806269  0.2266941250924507
  0.4520051648826486  0.7856178207964750  0.2266953489545522
  0.7019614379309695  0.5355922570748270  0.2266736899301295
  0.2020455167942744  0.7855088436555213  0.2266830905125171
  0.4519173555701428  0.0356422941919720  0.2266774872221281
  0.1191480405703130  0.7019059208603593  0.1261934793840501
  0.7019557385016687  0.0356068461263280  0.2266984835052508
  0.7848629756279850  0.1191798664339975  0.3272270284578708
  0.5348684434906897  0.8692697817245156  0.3271666562621310
  0.7864367119187722  0.1181484468946492  0.0228738474498306
  0.5364768448767645  0.8681442769840892  0.0228765161450005
  0.2019991254351081  0.5355787462250661  0.2266660918060078
  0.9519477194687154  0.2856007168289880  0.2266790936000463
  0.8691788641196851  0.9518622691271295  0.1262030015418054
  0.7019967514978340  0.2855258592026306  0.2266994543436333
  0.4519379299278247  0.2856181065362358  0.2266713254730818
 
  0.00000000E+00  0.00000000E+00  0.00000000E+00
  0.00000000E+00  0.00000000E+00  0.00000000E+00
  0.00000000E+00  0.00000000E+00  0.00000000E+00
  0.00000000E+00  0.00000000E+00  0.00000000E+00
  0.00000000E+00  0.00000000E+00  0.00000000E+00
  0.00000000E+00  0.00000000E+00  0.00000000E+00
  0.00000000E+00  0.00000000E+00  0.00000000E+00
  0.00000000E+00  0.00000000E+00  0.00000000E+00
  0.00000000E+00  0.00000000E+00  0.00000000E+00
  0.00000000E+00  0.00000000E+00  0.00000000E+00
  0.00000000E+00  0.00000000E+00  0.00000000E+00
  0.00000000E+00  0.00000000E+00  0.00000000E+00
  0.00000000E+00  0.00000000E+00  0.00000000E+00
  0.00000000E+00  0.00000000E+00  0.00000000E+00
  0.00000000E+00  0.00000000E+00  0.00000000E+00
  0.00000000E+00  0.00000000E+00  0.00000000E+00
  0.00000000E+00  0.00000000E+00  0.00000000E+00
  0.00000000E+00  0.00000000E+00  0.00000000E+00
  0.00000000E+00  0.00000000E+00  0.00000000E+00
  0.00000000E+00  0.00000000E+00  0.00000000E+00
  0.00000000E+00  0.00000000E+00  0.00000000E+00
  0.00000000E+00  0.00000000E+00  0.00000000E+00
  0.00000000E+00  0.00000000E+00  0.00000000E+00
  0.00000000E+00  0.00000000E+00  0.00000000E+00
  0.00000000E+00  0.00000000E+00  0.00000000E+00
  0.00000000E+00  0.00000000E+00  0.00000000E+00
  0.00000000E+00  0.00000000E+00  0.00000000E+00
  0.00000000E+00  0.00000000E+00  0.00000000E+00
  0.00000000E+00  0.00000000E+00  0.00000000E+00
  0.00000000E+00  0.00000000E+00  0.00000000E+00
  0.00000000E+00  0.00000000E+00  0.00000000E+00
  0.00000000E+00  0.00000000E+00  0.00000000E+00
  0.00000000E+00  0.00000000E+00  0.00000000E+00
  0.00000000E+00  0.00000000E+00  0.00000000E+00
  0.00000000E+00  0.00000000E+00  0.00000000E+00
  0.00000000E+00  0.00000000E+00  0.00000000E+00
  0.00000000E+00  0.00000000E+00  0.00000000E+00
  0.00000000E+00  0.00000000E+00  0.00000000E+00
  0.00000000E+00  0.00000000E+00  0.00000000E+00
  0.00000000E+00  0.00000000E+00  0.00000000E+00
  0.00000000E+00  0.00000000E+00  0.00000000E+00
  0.00000000E+00  0.00000000E+00  0.00000000E+00
  0.00000000E+00  0.00000000E+00  0.00000000E+00
  0.00000000E+00  0.00000000E+00  0.00000000E+00
  0.00000000E+00  0.00000000E+00  0.00000000E+00
  0.00000000E+00  0.00000000E+00  0.00000000E+00
  0.00000000E+00  0.00000000E+00  0.00000000E+00
  0.00000000E+00  0.00000000E+00  0.00000000E+00
  0.00000000E+00  0.00000000E+00  0.00000000E+00
  0.00000000E+00  0.00000000E+00  0.00000000E+00
  0.00000000E+00  0.00000000E+00  0.00000000E+00
  0.00000000E+00  0.00000000E+00  0.00000000E+00
  0.00000000E+00  0.00000000E+00  0.00000000E+00
  0.00000000E+00  0.00000000E+00  0.00000000E+00
  0.00000000E+00  0.00000000E+00  0.00000000E+00
  0.00000000E+00  0.00000000E+00  0.00000000E+00
  0.00000000E+00  0.00000000E+00  0.00000000E+00
  0.00000000E+00  0.00000000E+00  0.00000000E+00
  0.00000000E+00  0.00000000E+00  0.00000000E+00
  0.00000000E+00  0.00000000E+00  0.00000000E+00
  0.00000000E+00  0.00000000E+00  0.00000000E+00
  0.00000000E+00  0.00000000E+00  0.00000000E+00
  0.00000000E+00  0.00000000E+00  0.00000000E+00
  0.00000000E+00  0.00000000E+00  0.00000000E+00
  0.00000000E+00  0.00000000E+00  0.00000000E+00
  0.00000000E+00  0.00000000E+00  0.00000000E+00
  0.00000000E+00  0.00000000E+00  0.00000000E+00
  0.00000000E+00  0.00000000E+00  0.00000000E+00
  0.00000000E+00  0.00000000E+00  0.00000000E+00
  0.00000000E+00  0.00000000E+00  0.00000000E+00
  0.00000000E+00  0.00000000E+00  0.00000000E+00
  0.00000000E+00  0.00000000E+00  0.00000000E+00
  0.00000000E+00  0.00000000E+00  0.00000000E+00
  0.00000000E+00  0.00000000E+00  0.00000000E+00
  0.00000000E+00  0.00000000E+00  0.00000000E+00
  0.00000000E+00  0.00000000E+00  0.00000000E+00
  0.00000000E+00  0.00000000E+00  0.00000000E+00
  0.00000000E+00  0.00000000E+00  0.00000000E+00
  0.00000000E+00  0.00000000E+00  0.00000000E+00
  0.00000000E+00  0.00000000E+00  0.00000000E+00
