PtM\(2)                                 
   1.00000000000000     
    10.5600004195999997    0.0000000000000000    0.0000000000000000
     5.2800002097999998    9.1452286273999999    0.0000000000000000
     0.0000000000000000    0.0000000000000000   22.0000000000000000
   Cu   Pt   H 
    64    16     2
Selective dynamics
Direct
  0.7849780423402066  0.8693524297008537  0.3140937750681800   F   F   F
  0.0348503603036221  0.8697933826681634  0.3139724247045450   F   F   F
  0.0352672352324461  0.6194205776690893  0.3137412613863617   F   F   F
  0.7862489977741944  0.8683580306463838  0.0449029301409070   F   F   F
  0.0363259342032549  0.8683109594885678  0.0449037755136388   F   F   F
  0.0362926956164600  0.6183453800441185  0.0449040668727250   F   F   F
  0.6190059373410435  0.2020352778895287  0.1352781702363615   F   F   F
  0.3690287182127392  0.9520179664196391  0.1352793628454521   F   F   F
  0.0348622284052809  0.3691637231555802  0.3139366073954548   F   F   F
  0.0363223169521234  0.3683400816035913  0.0449042535590891   F   F   F
  0.8690354394784165  0.2020170446548164  0.1352869309954556   F   F   F
  0.9521048316997636  0.5354964477462474  0.2245185379045438   F   F   F
  0.2847720538226000  0.1192516105537820  0.3139106787181802   F   F   F
  0.5347384349580580  0.6191295957146252  0.3173306634590887   F   F   F
  0.2843089535667431  0.3686622880480712  0.3139919898227248   F   F   F
  0.2862743719031045  0.1183406332300407  0.0449050022409097   F   F   F
  0.5363161573872759  0.6183452978263801  0.0448859087045435   F   F   F
  0.2863548261650166  0.3683290234218717  0.0448970020954533   F   F   F
  0.6190115951470077  0.9519934922693309  0.1352729054090887   F   F   F
  0.7017884126701617  0.7855358760278932  0.2247131234000008   F   F   F
  0.8690562341340424  0.7019773347563785  0.1352801621909094   F   F   F
  0.6190154306749704  0.4520216268748740  0.1352790409500031   F   F   F
  0.2856880177583250  0.8677277381151782  0.3151838856772713   F   F   F
  0.2863313801676881  0.8683468335616311  0.0448881439999980   F   F   F
  0.6190297104958304  0.7020185649120592  0.1352794445545484   F   F   F
  0.2023280944897436  0.0349160347662902  0.2249431747409076   F   F   F
  0.5348069521097045  0.3705560122298905  0.3157136246772723   F   F   F
  0.5362909971988969  0.3683687437629146  0.0448882480863659   F   F   F
  0.5350926813438761  0.1196138136910605  0.3137444421272733   F   F   F
  0.5363149216246015  0.1183187474021210  0.0448927739090905   F   F   F
  0.8690821575080889  0.4519764673149709  0.1352776201363639   F   F   F
  0.1190566022182153  0.4520153678952070  0.1352898458409086   F   F   F
  0.0346498595928182  0.1189910448099312  0.3141793981272727   F   F   F
  0.0362816687696892  0.1183447565605249  0.0449075346136354   F   F   F
  0.1190601259472075  0.9519896514796216  0.1352788457909071   F   F   F
  0.4524134773386947  0.5361582298455900  0.2258835689636385   F   F   F
  0.3690244471336612  0.2020149772051383  0.1352856928499975   F   F   F
  0.1190303050251416  0.2020411246214309  0.1352914691636329   F   F   F
  0.9520368008365310  0.7857417132657218  0.2246130541363627   F   F   F
  0.7855872658992453  0.6191170074016696  0.3141048260999995   F   F   F
  0.2862138354346371  0.6191980041301477  0.3157458274227238   F   F   F
  0.7862585535986497  0.6183514669231087  0.0448983113227257   F   F   F
  0.2863148512113511  0.6183444775079039  0.0448935090136331   F   F   F
  0.3690604108637601  0.7020085334733963  0.1352746690909115   F   F   F
  0.3690289842654053  0.4520183087839627  0.1352848660681829   F   F   F
  0.2017222240300711  0.2855004724624663  0.2244940159318176   F   F   F
  0.7833249920211500  0.3700739249492315  0.3151645505409064   F   F   F
  0.7862455880820818  0.3683649368487991  0.0448978039272703   F   F   F
  0.9521573943734367  0.0359200824915149  0.2245958497681784   F   F   F
  0.4522585694725620  0.7845714616475234  0.2254801301818148   F   F   F
  0.7008591472331034  0.5359702538998761  0.2254683102954544   F   F   F
  0.2026581257644224  0.7852515407853318  0.2251577283999993   F   F   F
  0.4517469564263834  0.0358784006358164  0.2244909120000003   F   F   F
  0.1190753377591065  0.7019761661032575  0.1352883550727242   F   F   F
  0.7020014492778799  0.0357855915071923  0.2246013211727274   F   F   F
  0.7853825761799129  0.1192196789737281  0.3139836585954541   F   F   F
  0.5347182011392775  0.8700328781569340  0.3140975978909069   F   F   F
  0.7863001972648362  0.1183328961790693  0.0449101627227293   F   F   F
  0.5362660313703174  0.8683264854426795  0.0448757432500031   F   F   F
  0.2029405979188468  0.5358699557950004  0.2250571362909071   F   F   F
  0.9511617060916251  0.2860907208225640  0.2249575346181842   F   F   F
  0.8690701809434032  0.9519851025282833  0.1352848888045486   F   F   F
  0.7014965656768695  0.2863994670677386  0.2251467664863611   F   F   F
  0.4521193932506620  0.2866826799654731  0.2250424165772742   F   F   F
  0.8685541329972537  0.9538671026292391  0.4129717302181817   F   F   F
  0.1164455165128189  0.4535503051911363  0.4128107321863652   F   F   F
  0.1173740528802441  0.9537955040583697  0.4134208638318171   F   F   F
  0.8705773025230243  0.4519346866755214  0.4126887368454533   F   F   F
  0.3665659854991219  0.9558967886498166  0.4126468700772747   F   F   F
  0.8683536623072996  0.2028361023520304  0.4134378319045453   F   F   F
  0.1172876524610729  0.2026526330077019  0.4128420443727308   F   F   F
  0.6171438157487756  0.9551287694797992  0.4127428608909085   F   F   F
  0.8698096708362257  0.7024753560071915  0.4127514404000010   F   F   F
  0.3681959600720148  0.2017829587519699  0.4127910911636334   F   F   F
  0.3632016585272950  0.7081378026676148  0.4187534469818175   F   F   F
  0.6228065626056036  0.4485602336074379  0.4186583920454510   F   F   F
  0.1149892049199295  0.7047462966743083  0.4125203552272723   F   F   F
  0.6193653374795076  0.2003753447901460  0.4125643219181825   F   F   F
  0.3638845745503616  0.4490914994399233  0.4151175939818188   F   F   F
  0.6221975560177242  0.7075123332088324  0.4148248567681847   F   F   F
  0.4376875422616564  0.5250393768958332  0.4619449349954579   T   T   T
  0.5474232315460625  0.6330428734777199  0.4612121039863619   T   T   T
 
  0.00000000E+00  0.00000000E+00  0.00000000E+00
  0.00000000E+00  0.00000000E+00  0.00000000E+00
  0.00000000E+00  0.00000000E+00  0.00000000E+00
  0.00000000E+00  0.00000000E+00  0.00000000E+00
  0.00000000E+00  0.00000000E+00  0.00000000E+00
  0.00000000E+00  0.00000000E+00  0.00000000E+00
  0.00000000E+00  0.00000000E+00  0.00000000E+00
  0.00000000E+00  0.00000000E+00  0.00000000E+00
  0.00000000E+00  0.00000000E+00  0.00000000E+00
  0.00000000E+00  0.00000000E+00  0.00000000E+00
  0.00000000E+00  0.00000000E+00  0.00000000E+00
  0.00000000E+00  0.00000000E+00  0.00000000E+00
  0.00000000E+00  0.00000000E+00  0.00000000E+00
  0.00000000E+00  0.00000000E+00  0.00000000E+00
  0.00000000E+00  0.00000000E+00  0.00000000E+00
  0.00000000E+00  0.00000000E+00  0.00000000E+00
  0.00000000E+00  0.00000000E+00  0.00000000E+00
  0.00000000E+00  0.00000000E+00  0.00000000E+00
  0.00000000E+00  0.00000000E+00  0.00000000E+00
  0.00000000E+00  0.00000000E+00  0.00000000E+00
  0.00000000E+00  0.00000000E+00  0.00000000E+00
  0.00000000E+00  0.00000000E+00  0.00000000E+00
  0.00000000E+00  0.00000000E+00  0.00000000E+00
  0.00000000E+00  0.00000000E+00  0.00000000E+00
  0.00000000E+00  0.00000000E+00  0.00000000E+00
  0.00000000E+00  0.00000000E+00  0.00000000E+00
  0.00000000E+00  0.00000000E+00  0.00000000E+00
  0.00000000E+00  0.00000000E+00  0.00000000E+00
  0.00000000E+00  0.00000000E+00  0.00000000E+00
  0.00000000E+00  0.00000000E+00  0.00000000E+00
  0.00000000E+00  0.00000000E+00  0.00000000E+00
  0.00000000E+00  0.00000000E+00  0.00000000E+00
  0.00000000E+00  0.00000000E+00  0.00000000E+00
  0.00000000E+00  0.00000000E+00  0.00000000E+00
  0.00000000E+00  0.00000000E+00  0.00000000E+00
  0.00000000E+00  0.00000000E+00  0.00000000E+00
  0.00000000E+00  0.00000000E+00  0.00000000E+00
  0.00000000E+00  0.00000000E+00  0.00000000E+00
  0.00000000E+00  0.00000000E+00  0.00000000E+00
  0.00000000E+00  0.00000000E+00  0.00000000E+00
  0.00000000E+00  0.00000000E+00  0.00000000E+00
  0.00000000E+00  0.00000000E+00  0.00000000E+00
  0.00000000E+00  0.00000000E+00  0.00000000E+00
  0.00000000E+00  0.00000000E+00  0.00000000E+00
  0.00000000E+00  0.00000000E+00  0.00000000E+00
  0.00000000E+00  0.00000000E+00  0.00000000E+00
  0.00000000E+00  0.00000000E+00  0.00000000E+00
  0.00000000E+00  0.00000000E+00  0.00000000E+00
  0.00000000E+00  0.00000000E+00  0.00000000E+00
  0.00000000E+00  0.00000000E+00  0.00000000E+00
  0.00000000E+00  0.00000000E+00  0.00000000E+00
  0.00000000E+00  0.00000000E+00  0.00000000E+00
  0.00000000E+00  0.00000000E+00  0.00000000E+00
  0.00000000E+00  0.00000000E+00  0.00000000E+00
  0.00000000E+00  0.00000000E+00  0.00000000E+00
  0.00000000E+00  0.00000000E+00  0.00000000E+00
  0.00000000E+00  0.00000000E+00  0.00000000E+00
  0.00000000E+00  0.00000000E+00  0.00000000E+00
  0.00000000E+00  0.00000000E+00  0.00000000E+00
  0.00000000E+00  0.00000000E+00  0.00000000E+00
  0.00000000E+00  0.00000000E+00  0.00000000E+00
  0.00000000E+00  0.00000000E+00  0.00000000E+00
  0.00000000E+00  0.00000000E+00  0.00000000E+00
  0.00000000E+00  0.00000000E+00  0.00000000E+00
  0.00000000E+00  0.00000000E+00  0.00000000E+00
  0.00000000E+00  0.00000000E+00  0.00000000E+00
  0.00000000E+00  0.00000000E+00  0.00000000E+00
  0.00000000E+00  0.00000000E+00  0.00000000E+00
  0.00000000E+00  0.00000000E+00  0.00000000E+00
  0.00000000E+00  0.00000000E+00  0.00000000E+00
  0.00000000E+00  0.00000000E+00  0.00000000E+00
  0.00000000E+00  0.00000000E+00  0.00000000E+00
  0.00000000E+00  0.00000000E+00  0.00000000E+00
  0.00000000E+00  0.00000000E+00  0.00000000E+00
  0.00000000E+00  0.00000000E+00  0.00000000E+00
  0.00000000E+00  0.00000000E+00  0.00000000E+00
  0.00000000E+00  0.00000000E+00  0.00000000E+00
  0.00000000E+00  0.00000000E+00  0.00000000E+00
  0.00000000E+00  0.00000000E+00  0.00000000E+00
  0.00000000E+00  0.00000000E+00  0.00000000E+00
  0.00000000E+00  0.00000000E+00  0.00000000E+00
  0.00000000E+00  0.00000000E+00  0.00000000E+00
