Pt   H                                  
   1.00000000000000     
    10.5600004195999997    0.0000000000000000    0.0000000000000000
    -5.2800002097999998    9.1452286273999999    0.0000000000000000
     0.0000000000000000    0.0000000000000000   20.0000000000000000
   Pt   H 
    64     2
Selective dynamics
Direct
  0.9999984446215961  0.0000015553793773  0.0557922949150012   F   F   F
  0.3336216303769530  0.1680123430907964  0.1794918659345352   T   T   T
  0.1679644482301652  0.3330183766251141  0.3058497953127882   T   T   T
  0.0001352494528214  0.0006286208254645  0.4164652292674167   T   T   T
  0.9999984416169312  0.2500015483757210  0.0557922949150012   F   F   F
  0.3336382921504759  0.4163618150837199  0.1863736622233931   T   T   T
  0.1689998806104235  0.0864598741179109  0.3002581024030350   T   T   T
  0.9995327678838452  0.2497732150340674  0.4201592088929952   T   T   T
  0.2499984416169312  0.2500015483757210  0.0557922949150012   F   F   F
  0.0848706280604302  0.4161092825798486  0.1782260142816759   T   T   T
  0.4167253240362817  0.0839974038279629  0.2967188521214783   T   T   T
  0.2479832085694924  0.2483145227842604  0.4383339551032940   T   T   T
  0.2499984446215961  0.0000015553793773  0.0557922949150012   F   F   F
  0.0853180463202389  0.1679791584984864  0.1797167459605009   T   T   T
  0.4159602539734458  0.3341721974138384  0.3065894486062346   T   T   T
  0.2495057002044018  0.9998908228010560  0.4184153858101872   T   T   T
  0.4999984446215961  0.0000015553793773  0.0557922949150012   F   F   F
  0.8340100632083698  0.1666427339559187  0.1773560124453220   T   T   T
  0.6660659094367029  0.3333415059790704  0.2964495913526799   T   T   T
  0.4999021724011583  0.9999616832250865  0.4180792030713258   T   T   T
  0.4999984296188273  0.2500015483757210  0.0557922949150012   F   F   F
  0.8331746750311401  0.4160860686765978  0.1758601321211070   T   T   T
  0.6665158758354736  0.0834707356154221  0.2967790918798385   T   T   T
  0.4998283070783536  0.2499449596302384  0.4188265026826450   T   T   T
  0.7499984076207227  0.2500015483757210  0.0557922949150012   F   F   F
  0.5819930610395783  0.4164278552194532  0.1793561686127462   T   T   T
  0.9170525036867474  0.0836306016992012  0.2966205521415919   T   T   T
  0.7497995153036430  0.2498917283276219  0.4180601169276604   T   T   T
  0.7499984216197078  0.0000015553793773  0.0557922949150012   F   F   F
  0.5830615373291111  0.1669058413940139  0.1768141601597849   T   T   T
  0.9173252552208554  0.3329071764394343  0.2962451494231134   T   T   T
  0.7496766292092487  0.0001471432144631  0.4182310949225956   T   T   T
  0.9999984376190483  0.5000015423780582  0.0557922949150012   F   F   F
  0.3339725921334645  0.6651908564663250  0.1782927773784004   T   T   T
  0.1675787996113220  0.8341682159895178  0.2934377580083715   T   T   T
  0.9994575507393595  0.5001107715916578  0.4155878268177007   T   T   T
  0.9999984326223199  0.7500015093827130  0.0557922949150012   F   F   F
  0.3339710187650254  0.9168874406055911  0.1761120069151181   T   T   T
  0.1680713198015744  0.5821026495456562  0.2964331105917262   T   T   T
  0.9995197073314046  0.7502063395165997  0.4113900283391813   T   T   T
  0.2499984326223199  0.7500015093827130  0.0557922949150012   F   F   F
  0.0843162104042620  0.9180280641129294  0.1756419732838895   T   T   T
  0.4169803961230231  0.5820995135463634  0.3060101498931498   T   T   T
  0.2496680027592248  0.7503221500881038  0.4160287570210795   T   T   T
  0.2499984376190483  0.5000015423780582  0.0557922949150012   F   F   F
  0.0838961279444624  0.6662689943982784  0.1746596888420595   T   T   T
  0.4171174446103462  0.8326875988392005  0.2964523729493889   T   T   T
  0.2487751803785989  0.5008774032859290  0.4257036050149950   T   T   T
  0.4999984376190483  0.5000015423780582  0.0557922949150012   F   F   F
  0.8319508334655200  0.6657554280546071  0.1756249409237893   T   T   T
  0.6663714638077908  0.8329034399245669  0.2968847496804495   T   T   T
  0.5011587064453138  0.5017137874549871  0.4382487499251215   T   T   T
  0.4999984326223199  0.7500015093827130  0.0557922949150012   F   F   F
  0.8331254385177671  0.9168071934733572  0.1755040779029480   T   T   T
  0.6636007932126821  0.5811711765356786  0.3004386014979630   T   T   T
  0.5000376622036290  0.7502617496759511  0.4204418579408262   T   T   T
  0.7499984106242152  0.7500015093827130  0.0557922949150012   F   F   F
  0.5833030864645615  0.9159181046695489  0.1774067551205794   T   T   T
  0.9159407566804818  0.5825509959318722  0.2931613836648100   T   T   T
  0.7492512660860506  0.7497188813287875  0.4170401702142070   T   T   T
  0.7499983926190481  0.5000015423780582  0.0557922949150012   F   F   F
  0.5819894699478992  0.6646696509878612  0.1799972610713468   T   T   T
  0.9161440879386532  0.8337594082412749  0.2927755631195137   T   T   T
  0.7498013497864416  0.5002209977972764  0.4180973565788657   T   T   T
  0.3547847593179895  0.4002563051000524  0.5209008735998981   T   T   T
  0.3958861419310653  0.3501880998563053  0.5211238668261831   T   T   T
 
  0.00000000E+00  0.00000000E+00  0.00000000E+00
  0.00000000E+00  0.00000000E+00  0.00000000E+00
  0.00000000E+00  0.00000000E+00  0.00000000E+00
  0.00000000E+00  0.00000000E+00  0.00000000E+00
  0.00000000E+00  0.00000000E+00  0.00000000E+00
  0.00000000E+00  0.00000000E+00  0.00000000E+00
  0.00000000E+00  0.00000000E+00  0.00000000E+00
  0.00000000E+00  0.00000000E+00  0.00000000E+00
  0.00000000E+00  0.00000000E+00  0.00000000E+00
  0.00000000E+00  0.00000000E+00  0.00000000E+00
  0.00000000E+00  0.00000000E+00  0.00000000E+00
  0.00000000E+00  0.00000000E+00  0.00000000E+00
  0.00000000E+00  0.00000000E+00  0.00000000E+00
  0.00000000E+00  0.00000000E+00  0.00000000E+00
  0.00000000E+00  0.00000000E+00  0.00000000E+00
  0.00000000E+00  0.00000000E+00  0.00000000E+00
  0.00000000E+00  0.00000000E+00  0.00000000E+00
  0.00000000E+00  0.00000000E+00  0.00000000E+00
  0.00000000E+00  0.00000000E+00  0.00000000E+00
  0.00000000E+00  0.00000000E+00  0.00000000E+00
  0.00000000E+00  0.00000000E+00  0.00000000E+00
  0.00000000E+00  0.00000000E+00  0.00000000E+00
  0.00000000E+00  0.00000000E+00  0.00000000E+00
  0.00000000E+00  0.00000000E+00  0.00000000E+00
  0.00000000E+00  0.00000000E+00  0.00000000E+00
  0.00000000E+00  0.00000000E+00  0.00000000E+00
  0.00000000E+00  0.00000000E+00  0.00000000E+00
  0.00000000E+00  0.00000000E+00  0.00000000E+00
  0.00000000E+00  0.00000000E+00  0.00000000E+00
  0.00000000E+00  0.00000000E+00  0.00000000E+00
  0.00000000E+00  0.00000000E+00  0.00000000E+00
  0.00000000E+00  0.00000000E+00  0.00000000E+00
  0.00000000E+00  0.00000000E+00  0.00000000E+00
  0.00000000E+00  0.00000000E+00  0.00000000E+00
  0.00000000E+00  0.00000000E+00  0.00000000E+00
  0.00000000E+00  0.00000000E+00  0.00000000E+00
  0.00000000E+00  0.00000000E+00  0.00000000E+00
  0.00000000E+00  0.00000000E+00  0.00000000E+00
  0.00000000E+00  0.00000000E+00  0.00000000E+00
  0.00000000E+00  0.00000000E+00  0.00000000E+00
  0.00000000E+00  0.00000000E+00  0.00000000E+00
  0.00000000E+00  0.00000000E+00  0.00000000E+00
  0.00000000E+00  0.00000000E+00  0.00000000E+00
  0.00000000E+00  0.00000000E+00  0.00000000E+00
  0.00000000E+00  0.00000000E+00  0.00000000E+00
  0.00000000E+00  0.00000000E+00  0.00000000E+00
  0.00000000E+00  0.00000000E+00  0.00000000E+00
  0.00000000E+00  0.00000000E+00  0.00000000E+00
  0.00000000E+00  0.00000000E+00  0.00000000E+00
  0.00000000E+00  0.00000000E+00  0.00000000E+00
  0.00000000E+00  0.00000000E+00  0.00000000E+00
  0.00000000E+00  0.00000000E+00  0.00000000E+00
  0.00000000E+00  0.00000000E+00  0.00000000E+00
  0.00000000E+00  0.00000000E+00  0.00000000E+00
  0.00000000E+00  0.00000000E+00  0.00000000E+00
  0.00000000E+00  0.00000000E+00  0.00000000E+00
  0.00000000E+00  0.00000000E+00  0.00000000E+00
  0.00000000E+00  0.00000000E+00  0.00000000E+00
  0.00000000E+00  0.00000000E+00  0.00000000E+00
  0.00000000E+00  0.00000000E+00  0.00000000E+00
  0.00000000E+00  0.00000000E+00  0.00000000E+00
  0.00000000E+00  0.00000000E+00  0.00000000E+00
  0.00000000E+00  0.00000000E+00  0.00000000E+00
  0.00000000E+00  0.00000000E+00  0.00000000E+00
  0.00000000E+00  0.00000000E+00  0.00000000E+00
  0.00000000E+00  0.00000000E+00  0.00000000E+00
