Pt   H                                  
   1.00000000000000     
    10.5600004195999997    0.0000000000000000    0.0000000000000000
    -5.2800002097999998    9.1452286273999999    0.0000000000000000
     0.0000000000000000    0.0000000000000000   20.0000000000000000
   Pt   H 
    64     2
Selective dynamics
Direct
  0.9999984446215961  0.0000015553793773  0.0557922949150012   F   F   F
  0.3333741099181597  0.1675241047549294  0.1780325930357583   T   T   T
  0.1674495139597977  0.3336782232090642  0.3000851668724385   T   T   T
  0.0000158060302055 -0.0004952250830036  0.4176006000559462   T   T   T
  0.9999984416169312  0.2500015483757210  0.0557922949150012   F   F   F
  0.3333809738238956  0.4169260588489954  0.1808399796443278   T   T   T
  0.1670611119898076  0.0841277934624798  0.2972580564707443   T   T   T
  1.0000701851216918  0.2496716941104838  0.4180466156413237   T   T   T
  0.2499984416169312  0.2500015483757210  0.0557922949150012   F   F   F
  0.0842325433686442  0.4168866845718889  0.1777491264950775   T   T   T
  0.4169135162185002  0.0835486427323146  0.2959060949494117   T   T   T
  0.2497324932320795  0.2493295104203292  0.4221421210134529   T   T   T
  0.2499984446215961  0.0000015553793773  0.0557922949150012   F   F   F
  0.0839948341764846  0.1674294835089974  0.1777028236075681   T   T   T
  0.4166231955214469  0.3332503028380984  0.3011816355956312   T   T   T
  0.2502260446026546 -0.0003218265588181  0.4173721795171094   T   T   T
  0.4999984446215961  0.0000015553793773  0.0557922949150012   F   F   F
  0.8335916910825709  0.1667340709776894  0.1766815034451971   T   T   T
  0.6662770438433226  0.3330789054160147  0.2960074641819334   T   T   T
  0.5001420437713215  0.9995659555521763  0.4167439321830800   T   T   T
  0.4999984296188273  0.2500015483757210  0.0557922949150012   F   F   F
  0.8333258584648869  0.4168122336541225  0.1759024497782046   T   T   T
  0.6670723191880363  0.0828028337274641  0.2964273457131971   T   T   T
  0.5002662814243786  0.2493940003200874  0.4195977609289984   T   T   T
  0.7499984076207227  0.2500015483757210  0.0557922949150012   F   F   F
  0.5825568864704975  0.4167896610614208  0.1779956556278128   T   T   T
  0.9164794124509458  0.0830481602770398  0.2968844525668662   T   T   T
  0.7501751069934419  0.2495988486843269  0.4163998592062874   T   T   T
  0.7499984216197078  0.0000015553793773  0.0557922949150012   F   F   F
  0.5831491496930163  0.1668848624189591  0.1765062157954159   T   T   T
  0.9170869591058606  0.3333483192771061  0.2955084968869804   T   T   T
  0.7501240069210945  0.9996048655347264  0.4200359616307647   T   T   T
  0.9999984376190483  0.5000015423780582  0.0557922949150012   F   F   F
  0.3334720939228610  0.6661533151522565  0.1785467764324035   T   T   T
  0.1671317793987160  0.8332338927781592  0.2955146537185578   T   T   T
  1.0001797007605981  0.4996146049770308  0.4173778881368614   T   T   T
  0.9999984326223199  0.7500015093827130  0.0557922949150012   F   F   F
  0.3334745192070460  0.9167466381463055  0.1760521152896637   T   T   T
  0.1673921022952103  0.5826356895745071  0.2981543972664961   T   T   T
  1.0001958599439256  0.7495670956841072  0.4166081393575830   T   T   T
  0.2499984326223199  0.7500015093827130  0.0557922949150012   F   F   F
  0.0836400048643622  0.9173915725654234  0.1763374286603512   T   T   T
  0.4165140947024398  0.5828925486572754  0.3009350084959412   T   T   T
  0.2500824831664588  0.7495178419311225  0.4183265928932860   T   T   T
  0.2499984376190483  0.5000015423780582  0.0557922949150012   F   F   F
  0.0836717394504116  0.6666704728892074  0.1767282323323484   T   T   T
  0.4165537911796204  0.8326369995844578  0.2968217220188779   T   T   T
  0.2499774232536134  0.4996656239759214  0.4238099101456580   T   T   T
  0.4999984376190483  0.5000015423780582  0.0557922949150012   F   F   F
  0.8328321631404736  0.6666586713233105  0.1762431849467369   T   T   T
  0.6664063728919062  0.8331351860215805  0.2975120902612586   T   T   T
  0.5003960572751401  0.4999649266118826  0.4219553636378456   T   T   T
  0.4999984326223199  0.7500015093827130  0.0557922949150012   F   F   F
  0.8332067663258996  0.9168153729488941  0.1770202980636097   T   T   T
  0.6658458621298310  0.5828777534570652  0.2970052946771065   T   T   T
  0.5000443680377248  0.7497142173820385  0.4200243464424334   T   T   T
  0.7499984106242152  0.7500015093827130  0.0557922949150012   F   F   F
  0.5831826756599677  0.9162972019754806  0.1773734982519974   T   T   T
  0.9166166083156658  0.5830074254521547  0.2954164789323196   T   T   T
  0.7501632436546566  0.7496834602279671  0.4174557136023989   T   T   T
  0.7499983926190481  0.5000015423780582  0.0557922949150012   F   F   F
  0.5826350059943928  0.6662265895257756  0.1779433402709992   T   T   T
  0.9168140509551445  0.8332201522766876  0.2956352326375612   T   T   T
  0.7500324105195346  0.4995228774284066  0.4174594408042205   T   T   T
  0.3577760143319569  0.3982444385882326  0.5539254743219392   T   T   T
  0.3935082492536730  0.3516142568311251  0.5554244815963402   T   T   T
 
  0.00000000E+00  0.00000000E+00  0.00000000E+00
  0.00000000E+00  0.00000000E+00  0.00000000E+00
  0.00000000E+00  0.00000000E+00  0.00000000E+00
  0.00000000E+00  0.00000000E+00  0.00000000E+00
  0.00000000E+00  0.00000000E+00  0.00000000E+00
  0.00000000E+00  0.00000000E+00  0.00000000E+00
  0.00000000E+00  0.00000000E+00  0.00000000E+00
  0.00000000E+00  0.00000000E+00  0.00000000E+00
  0.00000000E+00  0.00000000E+00  0.00000000E+00
  0.00000000E+00  0.00000000E+00  0.00000000E+00
  0.00000000E+00  0.00000000E+00  0.00000000E+00
  0.00000000E+00  0.00000000E+00  0.00000000E+00
  0.00000000E+00  0.00000000E+00  0.00000000E+00
  0.00000000E+00  0.00000000E+00  0.00000000E+00
  0.00000000E+00  0.00000000E+00  0.00000000E+00
  0.00000000E+00  0.00000000E+00  0.00000000E+00
  0.00000000E+00  0.00000000E+00  0.00000000E+00
  0.00000000E+00  0.00000000E+00  0.00000000E+00
  0.00000000E+00  0.00000000E+00  0.00000000E+00
  0.00000000E+00  0.00000000E+00  0.00000000E+00
  0.00000000E+00  0.00000000E+00  0.00000000E+00
  0.00000000E+00  0.00000000E+00  0.00000000E+00
  0.00000000E+00  0.00000000E+00  0.00000000E+00
  0.00000000E+00  0.00000000E+00  0.00000000E+00
  0.00000000E+00  0.00000000E+00  0.00000000E+00
  0.00000000E+00  0.00000000E+00  0.00000000E+00
  0.00000000E+00  0.00000000E+00  0.00000000E+00
  0.00000000E+00  0.00000000E+00  0.00000000E+00
  0.00000000E+00  0.00000000E+00  0.00000000E+00
  0.00000000E+00  0.00000000E+00  0.00000000E+00
  0.00000000E+00  0.00000000E+00  0.00000000E+00
  0.00000000E+00  0.00000000E+00  0.00000000E+00
  0.00000000E+00  0.00000000E+00  0.00000000E+00
  0.00000000E+00  0.00000000E+00  0.00000000E+00
  0.00000000E+00  0.00000000E+00  0.00000000E+00
  0.00000000E+00  0.00000000E+00  0.00000000E+00
  0.00000000E+00  0.00000000E+00  0.00000000E+00
  0.00000000E+00  0.00000000E+00  0.00000000E+00
  0.00000000E+00  0.00000000E+00  0.00000000E+00
  0.00000000E+00  0.00000000E+00  0.00000000E+00
  0.00000000E+00  0.00000000E+00  0.00000000E+00
  0.00000000E+00  0.00000000E+00  0.00000000E+00
  0.00000000E+00  0.00000000E+00  0.00000000E+00
  0.00000000E+00  0.00000000E+00  0.00000000E+00
  0.00000000E+00  0.00000000E+00  0.00000000E+00
  0.00000000E+00  0.00000000E+00  0.00000000E+00
  0.00000000E+00  0.00000000E+00  0.00000000E+00
  0.00000000E+00  0.00000000E+00  0.00000000E+00
  0.00000000E+00  0.00000000E+00  0.00000000E+00
  0.00000000E+00  0.00000000E+00  0.00000000E+00
  0.00000000E+00  0.00000000E+00  0.00000000E+00
  0.00000000E+00  0.00000000E+00  0.00000000E+00
  0.00000000E+00  0.00000000E+00  0.00000000E+00
  0.00000000E+00  0.00000000E+00  0.00000000E+00
  0.00000000E+00  0.00000000E+00  0.00000000E+00
  0.00000000E+00  0.00000000E+00  0.00000000E+00
  0.00000000E+00  0.00000000E+00  0.00000000E+00
  0.00000000E+00  0.00000000E+00  0.00000000E+00
  0.00000000E+00  0.00000000E+00  0.00000000E+00
  0.00000000E+00  0.00000000E+00  0.00000000E+00
  0.00000000E+00  0.00000000E+00  0.00000000E+00
  0.00000000E+00  0.00000000E+00  0.00000000E+00
  0.00000000E+00  0.00000000E+00  0.00000000E+00
  0.00000000E+00  0.00000000E+00  0.00000000E+00
  0.00000000E+00  0.00000000E+00  0.00000000E+00
  0.00000000E+00  0.00000000E+00  0.00000000E+00
