Co   Pt   H                             
   1.00000000000000     
    10.5600004195999997    0.0000000000000000    0.0000000000000000
     5.2800002097999998    9.1452286273999999    0.0000000000000000
     0.0000000000000000    0.0000000000000000   22.0000000000000000
   Co   Pt   H 
    64    16     2
Selective dynamics
Direct
  0.7858456964079326  0.8691531941731655  0.3110988300533514   T   T   T
  0.0349931303135832  0.8689285859612124  0.3112659197433545   T   T   T
  0.0356976039835629  0.6188407110902403  0.3113159507658726   T   T   T
  0.7867273660717160  0.8679642656956403  0.0512459387681830   F   F   F
  0.0365582889316727  0.8681155879376945  0.0512968500727240   F   F   F
  0.0366385040692379  0.6180027208140757  0.0513268320045484   F   F   F
  0.6197458139953724  0.2015653887074080  0.1359842224363632   F   F   F
  0.3696581151044427  0.9516587404413883  0.1359628183681849   F   F   F
  0.0349545983636827  0.3687925686442179  0.3114439880884289   T   T   T
  0.0365963083346230  0.3681210410982487  0.0513400607590881   F   F   F
  0.8696445805581874  0.2016593805292644  0.1359685681136398   F   F   F
  0.9520660954189613  0.5354510066349412  0.2261191733683765   T   T   T
  0.2854378284628747  0.1183771454262776  0.3114566408777822   T   T   T
  0.5353553811544906  0.6185888893948912  0.3130694169081573   T   T   T
  0.2856916574612138  0.3689103899463354  0.3116374128134266   T   T   T
  0.2866892341020844  0.1181642286735496  0.0512986875090888   F   F   F
  0.5364312247542529  0.6180888009911953  0.0512321504227273   F   F   F
  0.2865494571265899  0.3680887902806873  0.0513541229409071   F   F   F
  0.6196855222964857  0.9516086189169641  0.1359457447227257   F   F   F
  0.7022269948287320  0.7852186329784719  0.2262295449822856   T   T   T
  0.8696068445877501  0.7016434521139203  0.1359744543409107   F   F   F
  0.6196787033340101  0.4516972511571211  0.1359518773045423   F   F   F
  0.2879455242155916  0.8653693847244891  0.3126447220466978   T   T   T
  0.2864484617105987  0.8681479668001657  0.0512844256863616   F   F   F
  0.6195877735811877  0.7016649391655889  0.1359121752636341   F   F   F
  0.2031787436349348  0.0335064237036163  0.2263919051095867   T   T   T
  0.5358900938461065  0.3707686800038426  0.3124656871458639   T   T   T
  0.5366727813368897  0.3679689281050500  0.0512926962318190   F   F   F
  0.5353183082722546  0.1191303147554184  0.3113220187690044   T   T   T
  0.5366727297449145  0.1180819610856503  0.0512831161363607   F   F   F
  0.8695347579033736  0.4517599086940010  0.1360032284090877   F   F   F
  0.1196881004386654  0.4516315490708749  0.1360589541590898   F   F   F
  0.0357216575503534  0.1191368162243305  0.3113653419487954   T   T   T
  0.0367073024034212  0.1181355239455755  0.0512976033590888   F   F   F
  0.1195841194112788  0.9517098196345941  0.1359996366499985   F   F   F
  0.4525841232527807  0.5356305088008494  0.2265648451453408   T   T   T
  0.3697648022638447  0.2016092602732655  0.1360238306954571   F   F   F
  0.1197124802163927  0.2016080101678313  0.1360219540863667   F   F   F
  0.9525012081650398  0.7852167969280509  0.2260145965177855   T   T   T
  0.7848192830785985  0.6185904400383271  0.3117459107316769   T   T   T
  0.2874664583571964  0.6191333468076126  0.3124266474822884   T   T   T
  0.7866122012324155  0.6180570610520562  0.0512491053409079   F   F   F
  0.2865146433568171  0.6180287077969808  0.0513054318772745   F   F   F
  0.3695989973367162  0.7017014523150777  0.1359655195227276   F   F   F
  0.3697484436136094  0.4516451135868707  0.1360192398909064   F   F   F
  0.2024769308988837  0.2854635597830113  0.2259990583337279   T   T   T
  0.7816001086592188  0.3715415250699053  0.3127560068818514   T   T   T
  0.7867185081021617  0.3680613783361437  0.0512697199636349   F   F   F
  0.9524919187954299  0.0355841125581541  0.2260405226541991   T   T   T
  0.4526146140282387  0.7841505806657221  0.2265649181109094   T   T   T
  0.7011699557669619  0.5356239895159111  0.2265628214713923   T   T   T
  0.2029765060595314  0.7851175428757109  0.2264048695551322   T   T   T
  0.4524498475376635  0.0350067647643591  0.2261061029471033   T   T   T
  0.1196483908887416  0.7016781133140881  0.1360106184272709   F   F   F
  0.7022296514193894  0.0354895180691842  0.2260202818207468   T   T   T
  0.7854838191007052  0.1184910311535349  0.3112737105825842   T   T   T
  0.5351876730721155  0.8682418454446501  0.3117425230734390   T   T   T
  0.7867138903031332  0.1180528005352812  0.0512607778181788   F   F   F
  0.5365868230827999  0.8681333544809533  0.0512481075045486   F   F   F
  0.2032779526478195  0.5356631826888566  0.2263957397790508   T   T   T
  0.9503174419872019  0.2863255046994185  0.2264322872082240   T   T   T
  0.8695596740848686  0.9516473608789653  0.1359644263590880   F   F   F
  0.7021354543496359  0.2859922782310907  0.2263981927835118   T   T   T
  0.4527375832626822  0.2862836359385260  0.2263966471956852   T   T   T
  0.8685651175658410  0.9526085777712119  0.4089034786808365   T   T   T
  0.1187178987605289  0.4521390271377299  0.4086029040326294   T   T   T
  0.1177934176931509  0.9533334422142440  0.4086272269921075   T   T   T
  0.8709502925817139  0.4514832010243435  0.4089631614105076   T   T   T
  0.3675295066661992  0.9549133584868488  0.4090238020444649   T   T   T
  0.8692661735300782  0.2017972765819006  0.4086216509079939   T   T   T
  0.1185074060151187  0.2025814263442989  0.4087130067587366   T   T   T
  0.6187147201277478  0.9526928923407633  0.4084937472115451   T   T   T
  0.8688641601363037  0.7026485567151851  0.4085256210879507   T   T   T
  0.3682811138692069  0.2025582719168842  0.4086630086370329   T   T   T
  0.3650407066315544  0.7060838269601029  0.4161296661381684   T   T   T
  0.6215485787393781  0.4496342895154797  0.4173619507475667   T   T   T
  0.1168456342501329  0.7036199216423955  0.4083750303597449   T   T   T
  0.6197324380713882  0.2008063289404075  0.4083434696208808   T   T   T
  0.3667220457365835  0.4508187500536255  0.4108607689101998   T   T   T
  0.6203508962617889  0.7045113155601156  0.4113875735344070   T   T   T
  0.4565765769025119  0.5384933376480258  0.4668280423129161   T   T   T
  0.5372865155438217  0.6158121580116656  0.4661445832828975   T   T   T
 
  0.00000000E+00  0.00000000E+00  0.00000000E+00
  0.00000000E+00  0.00000000E+00  0.00000000E+00
  0.00000000E+00  0.00000000E+00  0.00000000E+00
  0.00000000E+00  0.00000000E+00  0.00000000E+00
  0.00000000E+00  0.00000000E+00  0.00000000E+00
  0.00000000E+00  0.00000000E+00  0.00000000E+00
  0.00000000E+00  0.00000000E+00  0.00000000E+00
  0.00000000E+00  0.00000000E+00  0.00000000E+00
  0.00000000E+00  0.00000000E+00  0.00000000E+00
  0.00000000E+00  0.00000000E+00  0.00000000E+00
  0.00000000E+00  0.00000000E+00  0.00000000E+00
  0.00000000E+00  0.00000000E+00  0.00000000E+00
  0.00000000E+00  0.00000000E+00  0.00000000E+00
  0.00000000E+00  0.00000000E+00  0.00000000E+00
  0.00000000E+00  0.00000000E+00  0.00000000E+00
  0.00000000E+00  0.00000000E+00  0.00000000E+00
  0.00000000E+00  0.00000000E+00  0.00000000E+00
  0.00000000E+00  0.00000000E+00  0.00000000E+00
  0.00000000E+00  0.00000000E+00  0.00000000E+00
  0.00000000E+00  0.00000000E+00  0.00000000E+00
  0.00000000E+00  0.00000000E+00  0.00000000E+00
  0.00000000E+00  0.00000000E+00  0.00000000E+00
  0.00000000E+00  0.00000000E+00  0.00000000E+00
  0.00000000E+00  0.00000000E+00  0.00000000E+00
  0.00000000E+00  0.00000000E+00  0.00000000E+00
  0.00000000E+00  0.00000000E+00  0.00000000E+00
  0.00000000E+00  0.00000000E+00  0.00000000E+00
  0.00000000E+00  0.00000000E+00  0.00000000E+00
  0.00000000E+00  0.00000000E+00  0.00000000E+00
  0.00000000E+00  0.00000000E+00  0.00000000E+00
  0.00000000E+00  0.00000000E+00  0.00000000E+00
  0.00000000E+00  0.00000000E+00  0.00000000E+00
  0.00000000E+00  0.00000000E+00  0.00000000E+00
  0.00000000E+00  0.00000000E+00  0.00000000E+00
  0.00000000E+00  0.00000000E+00  0.00000000E+00
  0.00000000E+00  0.00000000E+00  0.00000000E+00
  0.00000000E+00  0.00000000E+00  0.00000000E+00
  0.00000000E+00  0.00000000E+00  0.00000000E+00
  0.00000000E+00  0.00000000E+00  0.00000000E+00
  0.00000000E+00  0.00000000E+00  0.00000000E+00
  0.00000000E+00  0.00000000E+00  0.00000000E+00
  0.00000000E+00  0.00000000E+00  0.00000000E+00
  0.00000000E+00  0.00000000E+00  0.00000000E+00
  0.00000000E+00  0.00000000E+00  0.00000000E+00
  0.00000000E+00  0.00000000E+00  0.00000000E+00
  0.00000000E+00  0.00000000E+00  0.00000000E+00
  0.00000000E+00  0.00000000E+00  0.00000000E+00
  0.00000000E+00  0.00000000E+00  0.00000000E+00
  0.00000000E+00  0.00000000E+00  0.00000000E+00
  0.00000000E+00  0.00000000E+00  0.00000000E+00
  0.00000000E+00  0.00000000E+00  0.00000000E+00
  0.00000000E+00  0.00000000E+00  0.00000000E+00
  0.00000000E+00  0.00000000E+00  0.00000000E+00
  0.00000000E+00  0.00000000E+00  0.00000000E+00
  0.00000000E+00  0.00000000E+00  0.00000000E+00
  0.00000000E+00  0.00000000E+00  0.00000000E+00
  0.00000000E+00  0.00000000E+00  0.00000000E+00
  0.00000000E+00  0.00000000E+00  0.00000000E+00
  0.00000000E+00  0.00000000E+00  0.00000000E+00
  0.00000000E+00  0.00000000E+00  0.00000000E+00
  0.00000000E+00  0.00000000E+00  0.00000000E+00
  0.00000000E+00  0.00000000E+00  0.00000000E+00
  0.00000000E+00  0.00000000E+00  0.00000000E+00
  0.00000000E+00  0.00000000E+00  0.00000000E+00
  0.00000000E+00  0.00000000E+00  0.00000000E+00
  0.00000000E+00  0.00000000E+00  0.00000000E+00
  0.00000000E+00  0.00000000E+00  0.00000000E+00
  0.00000000E+00  0.00000000E+00  0.00000000E+00
  0.00000000E+00  0.00000000E+00  0.00000000E+00
  0.00000000E+00  0.00000000E+00  0.00000000E+00
  0.00000000E+00  0.00000000E+00  0.00000000E+00
  0.00000000E+00  0.00000000E+00  0.00000000E+00
  0.00000000E+00  0.00000000E+00  0.00000000E+00
  0.00000000E+00  0.00000000E+00  0.00000000E+00
  0.00000000E+00  0.00000000E+00  0.00000000E+00
  0.00000000E+00  0.00000000E+00  0.00000000E+00
  0.00000000E+00  0.00000000E+00  0.00000000E+00
  0.00000000E+00  0.00000000E+00  0.00000000E+00
  0.00000000E+00  0.00000000E+00  0.00000000E+00
  0.00000000E+00  0.00000000E+00  0.00000000E+00
  0.00000000E+00  0.00000000E+00  0.00000000E+00
  0.00000000E+00  0.00000000E+00  0.00000000E+00
