Pt111                                   
   1.00000000000000     
    10.4600000059999996    0.0000000000000000    0.0000000000000000
     5.2300000300000002    9.0586257560000298    0.0000000000000000
     0.0000000000000000    0.0000000000000000   22.0000000000000000
   Pt   H 
    80     1
Selective dynamics
Direct
  0.7696282560914262  0.8823203532600414  0.3314853560535732   T   T   T
  0.0244009887218532  0.8768970652735912  0.3356583811796094   T   T   T
  0.0193024161616984  0.6318467565748235  0.3476510226310204   T   T   T
  0.7879355972427291  0.8671318684511462  0.0033812511181850   F   F   F
  0.0379693389487556  0.8672008657269856  0.0036877845090899   F   F   F
  0.0378733892707714  0.6172328953314548  0.0038820876999992   F   F   F
  0.6200100786764224  0.2012909065364852  0.1157149691545456   F   F   F
  0.3700217266347892  0.9513395321682125  0.1160021976545451   F   F   F
  0.0218495649513841  0.3827553496682369  0.3362590741949192   T   T   T
  0.0379267954017735  0.3672423065492652  0.0039367652818214   F   F   F
  0.8701728802437216  0.2012549686791587  0.1157534273772711   F   F   F
  0.9552317358581367  0.5378786863824427  0.2271997372586360   T   T   T
  0.2712265070156781  0.1327995830837667  0.3357286236984692   T   T   T
  0.5269148185690602  0.6344446155587526  0.3731010368118476   T   T   T
  0.2704433082521707  0.3827727579331981  0.3532838851138977   T   T   T
  0.2880078733336120  0.1172288516607054  0.0039675260318148   F   F   F
  0.5378594275212762  0.6171585192706530  0.0036422661227249   F   F   F
  0.2879258546929009  0.3672346782729790  0.0041125104409119   F   F   F
  0.6200054474969576  0.9512637043640311  0.1157245026272733   F   F   F
  0.6996029250413038  0.7884990596322582  0.2243484576141163   T   T   T
  0.8699896879148596  0.7012174997617819  0.1159109676727255   F   F   F
  0.6198774351796459  0.4512773230522669  0.1159166438772701   F   F   F
  0.2736077684775020  0.8754077244575280  0.3369468102166112   T   T   T
  0.2879122997624606  0.8672950601029328  0.0036335257318214   F   F   F
  0.6198911678348651  0.7012154122928322  0.1158418983772762   F   F   F
  0.2032784207759736  0.0348513415266006  0.2259136492211831   T   T   T
  0.8325671759249781  0.9805785798783879  0.4391039832336958   T   T   T
  0.0775912128292858  0.4811460888454609  0.4730828909637039   T   T   T
  0.0828570905614765  0.9806136280467331  0.4477347745731460   T   T   T
  0.8240713889308738  0.4856759162576612  0.4394342173057888   T   T   T
  0.3345412874609053  0.9779549188070218  0.4460197584715622   T   T   T
  0.8256459646665072  0.2340525780012032  0.4405248327319246   T   T   T
  0.0812439048841887  0.2341694660475681  0.4461000650368362   T   T   T
  0.5818584308132225  0.9835848007212745  0.4409629005462375   T   T   T
  0.8331055895451692  0.7309456245769183  0.4467675918591553   T   T   T
  0.3322812069134086  0.2340501840208245  0.4554465568032815   T   T   T
  0.3315506678562822  0.7340451586552484  0.4716054183315006   T   T   T
  0.5912715624747473  0.4781832571703791  0.4871275681853453   T   T   T
  0.0834183459104799  0.7286461124221026  0.4607025795040482   T   T   T
  0.5864541825936419  0.2238657993655890  0.4767458573421970   T   T   T
  0.5256115325248285  0.3723655187096425  0.3733500474589683   T   T   T
  0.5379531401485025  0.3671220144178307  0.0036299046136392   F   F   F
  0.5161287349668530  0.1412040077604978  0.3289628372827650   T   T   T
  0.5380699200014476  0.1170847242913737  0.0035827870818181   F   F   F
  0.8700184529221531  0.4512336079115045  0.1160682032318192   F   F   F
  0.1199665077999583  0.4512706179071770  0.1164656127681809   F   F   F
  0.0214609162952126  0.1304066537588866  0.3335584578192460   T   T   T
  0.0379430841353070  0.1172603539004200  0.0036839254863636   F   F   F
  0.1200719136612562  0.9513095173505874  0.1159922295454550   F   F   F
  0.3296167975363510  0.4794791084042189  0.4895287625909132   T   T   T
  0.4619608780027139  0.5326562273194069  0.2723916032633824   T   T   T
  0.5842988452275745  0.7363719297799736  0.4751621828077945   T   T   T
  0.3700337468137818  0.2013745681006611  0.1163391041136350   F   F   F
  0.1200757074821581  0.2014112151383998  0.1163357868590893   F   F   F
  0.9559093621557887  0.7845412958194268  0.2255854362782375   T   T   T
  0.7677535501323430  0.6326261402397191  0.3300278052275744   T   T   T
  0.2712754147195953  0.6306380453047474  0.3645959122530076   T   T   T
  0.7878151187402764  0.6171548695669458  0.0036517163818175   F   F   F
  0.2878269431806331  0.6172479655422904  0.0040690914318162   F   F   F
  0.3698486972944579  0.7012916396830065  0.1160944189954520   F   F   F
  0.3699675103550319  0.4512792590302439  0.1163719561136389   F   F   F
  0.2027372537494487  0.2914359357423363  0.2273913217264868   T   T   T
  0.7616237562700393  0.3865658160083216  0.3287038317609720   T   T   T
  0.7878565987058224  0.3671083510318738  0.0035979296590938   F   F   F
  0.9526659557789949  0.0361235018250541  0.2246529365450644   T   T   T
  0.4507717656457481  0.7823283659820278  0.2289131714131356   T   T   T
  0.6960272804827556  0.5396166946778403  0.2219555686164474   T   T   T
  0.2094287961300355  0.7767974891562492  0.2261298412509254   T   T   T
  0.4492702588584706  0.0396607864499582  0.2244816160562917   T   T   T
  0.1199044836726344  0.7013468144979811  0.1163247895045458   F   F   F
  0.6988464822690500  0.0405430798723183  0.2229194293441372   T   T   T
  0.7670125763092321  0.1360476078564452  0.3292648838277480   T   T   T
  0.5193561328449287  0.8804312728711243  0.3347840947681442   T   T   T
  0.7880085313529506  0.1171246594658442  0.0033814412499993   F   F   F
  0.5379365303420940  0.8671487715448549  0.0035919142318193   F   F   F
  0.2047116177330670  0.5376117784973371  0.2492322092301413   T   T   T
  0.9510246035007650  0.2883685847546908  0.2240617125770481   T   T   T
  0.8701004949472875  0.9512048588708666  0.1156720897681822   F   F   F
  0.6957041523416858  0.2931171472825067  0.2232854605214030   T   T   T
  0.4466643183220679  0.3016084493923434  0.2233441055474183   T   T   T
  0.4650650707347212  0.4730872773727724  0.5391525234377421   T   T   T
 
  0.00000000E+00  0.00000000E+00  0.00000000E+00
  0.00000000E+00  0.00000000E+00  0.00000000E+00
  0.00000000E+00  0.00000000E+00  0.00000000E+00
  0.00000000E+00  0.00000000E+00  0.00000000E+00
  0.00000000E+00  0.00000000E+00  0.00000000E+00
  0.00000000E+00  0.00000000E+00  0.00000000E+00
  0.00000000E+00  0.00000000E+00  0.00000000E+00
  0.00000000E+00  0.00000000E+00  0.00000000E+00
  0.00000000E+00  0.00000000E+00  0.00000000E+00
  0.00000000E+00  0.00000000E+00  0.00000000E+00
  0.00000000E+00  0.00000000E+00  0.00000000E+00
  0.00000000E+00  0.00000000E+00  0.00000000E+00
  0.00000000E+00  0.00000000E+00  0.00000000E+00
  0.00000000E+00  0.00000000E+00  0.00000000E+00
  0.00000000E+00  0.00000000E+00  0.00000000E+00
  0.00000000E+00  0.00000000E+00  0.00000000E+00
  0.00000000E+00  0.00000000E+00  0.00000000E+00
  0.00000000E+00  0.00000000E+00  0.00000000E+00
  0.00000000E+00  0.00000000E+00  0.00000000E+00
  0.00000000E+00  0.00000000E+00  0.00000000E+00
  0.00000000E+00  0.00000000E+00  0.00000000E+00
  0.00000000E+00  0.00000000E+00  0.00000000E+00
  0.00000000E+00  0.00000000E+00  0.00000000E+00
  0.00000000E+00  0.00000000E+00  0.00000000E+00
  0.00000000E+00  0.00000000E+00  0.00000000E+00
  0.00000000E+00  0.00000000E+00  0.00000000E+00
  0.00000000E+00  0.00000000E+00  0.00000000E+00
  0.00000000E+00  0.00000000E+00  0.00000000E+00
  0.00000000E+00  0.00000000E+00  0.00000000E+00
  0.00000000E+00  0.00000000E+00  0.00000000E+00
  0.00000000E+00  0.00000000E+00  0.00000000E+00
  0.00000000E+00  0.00000000E+00  0.00000000E+00
  0.00000000E+00  0.00000000E+00  0.00000000E+00
  0.00000000E+00  0.00000000E+00  0.00000000E+00
  0.00000000E+00  0.00000000E+00  0.00000000E+00
  0.00000000E+00  0.00000000E+00  0.00000000E+00
  0.00000000E+00  0.00000000E+00  0.00000000E+00
  0.00000000E+00  0.00000000E+00  0.00000000E+00
  0.00000000E+00  0.00000000E+00  0.00000000E+00
  0.00000000E+00  0.00000000E+00  0.00000000E+00
  0.00000000E+00  0.00000000E+00  0.00000000E+00
  0.00000000E+00  0.00000000E+00  0.00000000E+00
  0.00000000E+00  0.00000000E+00  0.00000000E+00
  0.00000000E+00  0.00000000E+00  0.00000000E+00
  0.00000000E+00  0.00000000E+00  0.00000000E+00
  0.00000000E+00  0.00000000E+00  0.00000000E+00
  0.00000000E+00  0.00000000E+00  0.00000000E+00
  0.00000000E+00  0.00000000E+00  0.00000000E+00
  0.00000000E+00  0.00000000E+00  0.00000000E+00
  0.00000000E+00  0.00000000E+00  0.00000000E+00
  0.00000000E+00  0.00000000E+00  0.00000000E+00
  0.00000000E+00  0.00000000E+00  0.00000000E+00
  0.00000000E+00  0.00000000E+00  0.00000000E+00
  0.00000000E+00  0.00000000E+00  0.00000000E+00
  0.00000000E+00  0.00000000E+00  0.00000000E+00
  0.00000000E+00  0.00000000E+00  0.00000000E+00
  0.00000000E+00  0.00000000E+00  0.00000000E+00
  0.00000000E+00  0.00000000E+00  0.00000000E+00
  0.00000000E+00  0.00000000E+00  0.00000000E+00
  0.00000000E+00  0.00000000E+00  0.00000000E+00
  0.00000000E+00  0.00000000E+00  0.00000000E+00
  0.00000000E+00  0.00000000E+00  0.00000000E+00
  0.00000000E+00  0.00000000E+00  0.00000000E+00
  0.00000000E+00  0.00000000E+00  0.00000000E+00
  0.00000000E+00  0.00000000E+00  0.00000000E+00
  0.00000000E+00  0.00000000E+00  0.00000000E+00
  0.00000000E+00  0.00000000E+00  0.00000000E+00
  0.00000000E+00  0.00000000E+00  0.00000000E+00
  0.00000000E+00  0.00000000E+00  0.00000000E+00
  0.00000000E+00  0.00000000E+00  0.00000000E+00
  0.00000000E+00  0.00000000E+00  0.00000000E+00
  0.00000000E+00  0.00000000E+00  0.00000000E+00
  0.00000000E+00  0.00000000E+00  0.00000000E+00
  0.00000000E+00  0.00000000E+00  0.00000000E+00
  0.00000000E+00  0.00000000E+00  0.00000000E+00
  0.00000000E+00  0.00000000E+00  0.00000000E+00
  0.00000000E+00  0.00000000E+00  0.00000000E+00
  0.00000000E+00  0.00000000E+00  0.00000000E+00
  0.00000000E+00  0.00000000E+00  0.00000000E+00
  0.00000000E+00  0.00000000E+00  0.00000000E+00
  0.00000000E+00  0.00000000E+00  0.00000000E+00
