Pt   H                                  
   1.00000000000000     
    11.2227001190000006    0.0000000000000000    0.0000000000000000
     5.6113500595000003    9.7191434021000003    0.0000000000000000
     0.0000000000000000    0.0000000000000000   22.0000000000000000
   Pt   H 
    80     2
Direct
  0.7851684463593045  0.8689750360778811  0.3267559291457768
  0.0352014593443531  0.8689525885718888  0.3267238397698878
  0.0352323159040154  0.6188040227647661  0.3266593656891840
  0.7856694118305083  0.8685734557039545  0.0225239886935320
  0.0357136904819071  0.8685559385457069  0.0225211910713355
  0.0357389264919879  0.6184669877487295  0.0224910818335975
  0.6188082798491928  0.2020139482186832  0.1257857355194288
  0.3687747515279139  0.9521701958540288  0.1257655361640886
  0.0353241696088418  0.3688545836412923  0.3266749343807764
  0.0357739178401082  0.3684765626627556  0.0224436357290912
  0.8688529412158362  0.2020021607390207  0.1257788773154931
  0.9520274888224878  0.5354717067923354  0.2262052043710021
  0.2850859591991409  0.1191010608810412  0.3267065964818552
  0.5352747914817384  0.6190197188972847  0.3263284040745589
  0.2849926321072068  0.3687625375578569  0.3264874469571442
  0.2855698952415698  0.1186164166805113  0.0224640251416819
  0.5357183805488054  0.6185245897516517  0.0224442233805276
  0.2856469412882232  0.3685573995307643  0.0224484286047097
  0.6188615105364036  0.9520667394241517  0.1258217806972709
  0.7020756044055931  0.7855062037904795  0.2262271472459620
  0.8688507863423232  0.7020408979362028  0.1257855684792812
  0.6189117414541687  0.4520276745414599  0.1257143520663679
  0.2850582434798986  0.8692408531569202  0.3265332136233636
  0.2856548090339009  0.8686083637704550  0.0224608993186899
  0.6188059380329614  0.7021665850832703  0.1257231643117128
  0.2020344106961540  0.0353846982080465  0.2262842630422399
  0.8683261817079524  0.9524225457557306  0.4300942436105406
  0.1183997968960239  0.4523637974851245  0.4300061698968954
  0.1180716277488290  0.9527204817330583  0.4300272930579365
  0.8684597069000699  0.4525095166811752  0.4299789327491274
  0.3684350991174213  0.9525084786325424  0.4299682962987116
  0.8686676398510867  0.2022183425819296  0.4300364765476499
  0.1183120644073213  0.2025072242967943  0.4300844248802456
  0.6183188467903884  0.9525723102613058  0.4300280717043878
  0.8684810031100320  0.7024524221834512  0.4300330406053330
  0.3683168120054734  0.2024897113009743  0.4300183966995352
  0.3676283053483778  0.7030649574946749  0.4291850132886748
  0.6190075901264590  0.4517124828689753  0.4291854224173155
  0.1180542641963295  0.7024746199056092  0.4299530830579402
  0.6183287058128265  0.2022385798199006  0.4299606446745043
  0.5350876044101713  0.3689293421339819  0.3264594514935147
  0.5357128636277046  0.3685631237331141  0.0224676598467282
  0.5351395512316263  0.1189445433207266  0.3266655548759910
  0.5356889818195160  0.1185220919377027  0.0225014638632035
  0.8689820050129463  0.4519117282068141  0.1257510222265536
  0.1187982035664134  0.4520181108039578  0.1257712903765356
  0.0352431348534408  0.1189468432515872  0.3266968997385555
  0.0357320129761612  0.1185590035587627  0.0225267865508234
  0.1187886754877703  0.9520837648454188  0.1258162128835321
  0.3682643683134252  0.4521932920578886  0.4296125430533221
  0.4519788753450033  0.5355639190858973  0.2260509677334087
  0.6186117424981448  0.7028149088718472  0.4295559828146293
  0.3688066424239301  0.2020389181777340  0.1257552885501616
  0.1187802841367033  0.2020394119882484  0.1258884672929298
  0.9519514172561685  0.7854962296517362  0.2262786751410143
  0.7854062382628277  0.6188409552546500  0.3265911089626968
  0.2851155702849058  0.6187999383245879  0.3264817921152036
  0.7856811739009766  0.6185209368139308  0.0224990074076506
  0.2856827554875341  0.6185461487002885  0.0224693792550279
  0.3687919204734229  0.7021631266557952  0.1257029027625408
  0.3688161343192471  0.4519831815582263  0.1257120383874474
  0.2020012888971213  0.2854123734190455  0.2261698675564340
  0.7854306560796999  0.3689191222966329  0.3265201233095526
  0.7856611044693099  0.3685765707762565  0.0224365744268367
  0.9519309269257161  0.0354913746447235  0.2262874694280747
  0.4520108040353127  0.7855675569182500  0.2261056267894962
  0.7020273066072172  0.5355942245850281  0.2260804053753793
  0.2019451721998384  0.7854762270646456  0.2261796455374562
  0.4519608060811282  0.0356086212742215  0.2262136311881893
  0.1187407973998937  0.7020823212443015  0.1257802907780420
  0.7020466430569157  0.0355092047621539  0.2262965766976484
  0.7851980267967749  0.1190197923619879  0.3267582728573675
  0.5350572156431366  0.8691974517607263  0.3265558810942374
  0.7856610887821515  0.1185376148942373  0.0225118394593617
  0.5356882966579701  0.8685961539435281  0.0224897990220337
  0.2019957685288935  0.5355526635101574  0.2261565382898858
  0.9518783333573505  0.2855020980238464  0.2262730778189054
  0.8688449818481202  0.9520000421811298  0.1258294210595474
  0.7020325775055836  0.2854215311207872  0.2261716430434611
  0.4520387259969098  0.2855154276639998  0.2261720066913860
  0.4735114985971731  0.5588746486141835  0.5491521806940773
  0.5122914477030058  0.5977911414749323  0.5501522011221347
 
  0.00000000E+00  0.00000000E+00  0.00000000E+00
  0.00000000E+00  0.00000000E+00  0.00000000E+00
  0.00000000E+00  0.00000000E+00  0.00000000E+00
  0.00000000E+00  0.00000000E+00  0.00000000E+00
  0.00000000E+00  0.00000000E+00  0.00000000E+00
  0.00000000E+00  0.00000000E+00  0.00000000E+00
  0.00000000E+00  0.00000000E+00  0.00000000E+00
  0.00000000E+00  0.00000000E+00  0.00000000E+00
  0.00000000E+00  0.00000000E+00  0.00000000E+00
  0.00000000E+00  0.00000000E+00  0.00000000E+00
  0.00000000E+00  0.00000000E+00  0.00000000E+00
  0.00000000E+00  0.00000000E+00  0.00000000E+00
  0.00000000E+00  0.00000000E+00  0.00000000E+00
  0.00000000E+00  0.00000000E+00  0.00000000E+00
  0.00000000E+00  0.00000000E+00  0.00000000E+00
  0.00000000E+00  0.00000000E+00  0.00000000E+00
  0.00000000E+00  0.00000000E+00  0.00000000E+00
  0.00000000E+00  0.00000000E+00  0.00000000E+00
  0.00000000E+00  0.00000000E+00  0.00000000E+00
  0.00000000E+00  0.00000000E+00  0.00000000E+00
  0.00000000E+00  0.00000000E+00  0.00000000E+00
  0.00000000E+00  0.00000000E+00  0.00000000E+00
  0.00000000E+00  0.00000000E+00  0.00000000E+00
  0.00000000E+00  0.00000000E+00  0.00000000E+00
  0.00000000E+00  0.00000000E+00  0.00000000E+00
  0.00000000E+00  0.00000000E+00  0.00000000E+00
  0.00000000E+00  0.00000000E+00  0.00000000E+00
  0.00000000E+00  0.00000000E+00  0.00000000E+00
  0.00000000E+00  0.00000000E+00  0.00000000E+00
  0.00000000E+00  0.00000000E+00  0.00000000E+00
  0.00000000E+00  0.00000000E+00  0.00000000E+00
  0.00000000E+00  0.00000000E+00  0.00000000E+00
  0.00000000E+00  0.00000000E+00  0.00000000E+00
  0.00000000E+00  0.00000000E+00  0.00000000E+00
  0.00000000E+00  0.00000000E+00  0.00000000E+00
  0.00000000E+00  0.00000000E+00  0.00000000E+00
  0.00000000E+00  0.00000000E+00  0.00000000E+00
  0.00000000E+00  0.00000000E+00  0.00000000E+00
  0.00000000E+00  0.00000000E+00  0.00000000E+00
  0.00000000E+00  0.00000000E+00  0.00000000E+00
  0.00000000E+00  0.00000000E+00  0.00000000E+00
  0.00000000E+00  0.00000000E+00  0.00000000E+00
  0.00000000E+00  0.00000000E+00  0.00000000E+00
  0.00000000E+00  0.00000000E+00  0.00000000E+00
  0.00000000E+00  0.00000000E+00  0.00000000E+00
  0.00000000E+00  0.00000000E+00  0.00000000E+00
  0.00000000E+00  0.00000000E+00  0.00000000E+00
  0.00000000E+00  0.00000000E+00  0.00000000E+00
  0.00000000E+00  0.00000000E+00  0.00000000E+00
  0.00000000E+00  0.00000000E+00  0.00000000E+00
  0.00000000E+00  0.00000000E+00  0.00000000E+00
  0.00000000E+00  0.00000000E+00  0.00000000E+00
  0.00000000E+00  0.00000000E+00  0.00000000E+00
  0.00000000E+00  0.00000000E+00  0.00000000E+00
  0.00000000E+00  0.00000000E+00  0.00000000E+00
  0.00000000E+00  0.00000000E+00  0.00000000E+00
  0.00000000E+00  0.00000000E+00  0.00000000E+00
  0.00000000E+00  0.00000000E+00  0.00000000E+00
  0.00000000E+00  0.00000000E+00  0.00000000E+00
  0.00000000E+00  0.00000000E+00  0.00000000E+00
  0.00000000E+00  0.00000000E+00  0.00000000E+00
  0.00000000E+00  0.00000000E+00  0.00000000E+00
  0.00000000E+00  0.00000000E+00  0.00000000E+00
  0.00000000E+00  0.00000000E+00  0.00000000E+00
  0.00000000E+00  0.00000000E+00  0.00000000E+00
  0.00000000E+00  0.00000000E+00  0.00000000E+00
  0.00000000E+00  0.00000000E+00  0.00000000E+00
  0.00000000E+00  0.00000000E+00  0.00000000E+00
  0.00000000E+00  0.00000000E+00  0.00000000E+00
  0.00000000E+00  0.00000000E+00  0.00000000E+00
  0.00000000E+00  0.00000000E+00  0.00000000E+00
  0.00000000E+00  0.00000000E+00  0.00000000E+00
  0.00000000E+00  0.00000000E+00  0.00000000E+00
  0.00000000E+00  0.00000000E+00  0.00000000E+00
  0.00000000E+00  0.00000000E+00  0.00000000E+00
  0.00000000E+00  0.00000000E+00  0.00000000E+00
  0.00000000E+00  0.00000000E+00  0.00000000E+00
  0.00000000E+00  0.00000000E+00  0.00000000E+00
  0.00000000E+00  0.00000000E+00  0.00000000E+00
  0.00000000E+00  0.00000000E+00  0.00000000E+00
  0.00000000E+00  0.00000000E+00  0.00000000E+00
  0.00000000E+00  0.00000000E+00  0.00000000E+00
