Pt   H                                  
   1.00000000000000     
    11.2227001190000006    0.0000000000000000    0.0000000000000000
     5.6113500595000003    9.7191434021000003    0.0000000000000000
     0.0000000000000000    0.0000000000000000   22.0000000000000000
   Pt   H 
    80     2
Direct
  0.7852028879654983  0.8690859645300084  0.3269722019426384
  0.0352126368372305  0.8688590118498418  0.3271927219685297
  0.0356263518761249  0.6186421023232923  0.3267431037648317
  0.7856381922218131  0.8685789509896298  0.0230402368234547
  0.0360689378889619  0.8684390007047150  0.0231074894034398
  0.0358209111751453  0.6184597005133341  0.0229020919007394
  0.6187143884502070  0.2020779189334167  0.1262273599844129
  0.3683443513436996  0.9521327444331018  0.1264679968230115
  0.0348497407851083  0.3687231040536812  0.3269911379122151
  0.0357358790004900  0.3685922860258872  0.0230741761039753
  0.8688278031668087  0.2020338949917441  0.1265312466101954
  0.9520111927552063  0.5353872853309329  0.2265802169989246
  0.2847818418708470  0.1186872061558203  0.3270432470899700
  0.5353921432895236  0.6190719727686376  0.3273149651118156
  0.2848019119521328  0.3686511916385958  0.3262671725663015
  0.2857813561833367  0.1185014785522344  0.0230951234897541
  0.5357545737265070  0.6185050802105053  0.0229989235326629
  0.2855649873504961  0.3684645770470837  0.0228818169573877
  0.6185263951933099  0.9521433238131836  0.1262090688135834
  0.7019496087258911  0.7854481636808320  0.2265013660056766
  0.8689183165659349  0.7018157990041229  0.1261791121417898
  0.6188457500588530  0.4519769641973850  0.1263608421029114
  0.2861734665337770  0.8670624233868309  0.3282884575236773
  0.2855559384433606  0.8688503281301286  0.0230348466494106
  0.6187601502514403  0.7020504734414910  0.1261441413419769
  0.2020551800829216  0.0341541983067730  0.2273363398481922
  0.8685664480897994  0.9525857523972469  0.4306336397687843
  0.1182001804609440  0.4522904151537790  0.4302349975739188
  0.1171039774643392  0.9538204083109625  0.4308575253452893
  0.8701848918941310  0.4525440734668751  0.4306031773856561
  0.3684624588406863  0.9542973415761593  0.4306346049825616
  0.8696690742438580  0.2012176553220871  0.4308377251654837
  0.1183320921061777  0.2025484289505960  0.4305977996451619
  0.6186288809372534  0.9535179702809614  0.4303770532881878
  0.8693761823669514  0.7027862098994444  0.4303411810900432
  0.3682013790361873  0.2023396439082700  0.4302714287977071
  0.3668324329250008  0.7051163592645269  0.4316836395865326
  0.6212007634685268  0.4506479745753609  0.4315957375123476
  0.1171277605315597  0.7029184019618555  0.4303186399141505
  0.6187409631083511  0.2012200677984479  0.4303772347175512
  0.5348800469346201  0.3693114744738377  0.3275092687723514
  0.5357147130688202  0.3687546970004777  0.0229686009573254
  0.5348159913757485  0.1193607932761351  0.3267686792339496
  0.5356984379157662  0.1185733301571053  0.0229146827030923
  0.8689372601898252  0.4515689155261802  0.1264466583744738
  0.1188451821529882  0.4517170736934152  0.1262171544684424
  0.0350179129574117  0.1187600632706733  0.3272232263922699
  0.0358774056235490  0.1186353774984044  0.0232111052083233
  0.1187439698046765  0.9520423029620990  0.1265382711486394
  0.3662552614880665  0.4503680434728327  0.4296131804133507
  0.4519680745961959  0.5355187862950875  0.2269457739009846
  0.6212031529714255  0.7052561540029521  0.4293979417823415
  0.3684856675109582  0.2020981446663236  0.1262036012746797
  0.1185667902583423  0.2018254092958875  0.1267577897373912
  0.9519476957610723  0.7855086478503831  0.2265634993778091
  0.7857250455865060  0.6187591684358896  0.3268075048375632
  0.2855349634999995  0.6186752165647530  0.3275014333479240
  0.7856945855119655  0.6183570595926318  0.0229917607301686
  0.2859884297321548  0.6184784102582127  0.0229973591396145
  0.3688070448568143  0.7020727656053339  0.1263582204953578
  0.3688959358676089  0.4520164236611478  0.1261806926594019
  0.2015660123171290  0.2850660506685221  0.2267006138017788
  0.7833371183640894  0.3699825097457694  0.3282139915179285
  0.7859494113147935  0.3684912024942233  0.0230177361810107
  0.9516086015156159  0.0352364681248967  0.2268544909372880
  0.4519424545113602  0.7854092657558781  0.2267006762934979
  0.7018858032418325  0.5355015908531454  0.2266756320392862
  0.2022432099977056  0.7851214629183052  0.2269656163793560
  0.4517021944789661  0.0356293169699930  0.2266034511485638
  0.1188093654406371  0.7019990779843200  0.1262000777560578
  0.7019198757996132  0.0354939233448394  0.2265896720783055
  0.7850070743797205  0.1189990520364425  0.3272371123372816
  0.5349203335093385  0.8695261421127054  0.3268000596987832
  0.7855904092740651  0.1189288482909334  0.0231317422889350
  0.5355241592069437  0.8685219229843599  0.0229937296704097
  0.2021064976501856  0.5357289250118492  0.2263506585527064
  0.9506468367840476  0.2855940955150125  0.2273145258816241
  0.8687962198010890  0.9520227058126989  0.1262072077484371
  0.7016260050230112  0.2857100481269774  0.2269818777234467
  0.4521442707902140  0.2856287796314961  0.2263772378438351
  0.4721594401293486  0.5570517379583443  0.5100975781004305
  0.5140174696373583  0.5993748472193676  0.5103136410767011
 
  0.00000000E+00  0.00000000E+00  0.00000000E+00
  0.00000000E+00  0.00000000E+00  0.00000000E+00
  0.00000000E+00  0.00000000E+00  0.00000000E+00
  0.00000000E+00  0.00000000E+00  0.00000000E+00
  0.00000000E+00  0.00000000E+00  0.00000000E+00
  0.00000000E+00  0.00000000E+00  0.00000000E+00
  0.00000000E+00  0.00000000E+00  0.00000000E+00
  0.00000000E+00  0.00000000E+00  0.00000000E+00
  0.00000000E+00  0.00000000E+00  0.00000000E+00
  0.00000000E+00  0.00000000E+00  0.00000000E+00
  0.00000000E+00  0.00000000E+00  0.00000000E+00
  0.00000000E+00  0.00000000E+00  0.00000000E+00
  0.00000000E+00  0.00000000E+00  0.00000000E+00
  0.00000000E+00  0.00000000E+00  0.00000000E+00
  0.00000000E+00  0.00000000E+00  0.00000000E+00
  0.00000000E+00  0.00000000E+00  0.00000000E+00
  0.00000000E+00  0.00000000E+00  0.00000000E+00
  0.00000000E+00  0.00000000E+00  0.00000000E+00
  0.00000000E+00  0.00000000E+00  0.00000000E+00
  0.00000000E+00  0.00000000E+00  0.00000000E+00
  0.00000000E+00  0.00000000E+00  0.00000000E+00
  0.00000000E+00  0.00000000E+00  0.00000000E+00
  0.00000000E+00  0.00000000E+00  0.00000000E+00
  0.00000000E+00  0.00000000E+00  0.00000000E+00
  0.00000000E+00  0.00000000E+00  0.00000000E+00
  0.00000000E+00  0.00000000E+00  0.00000000E+00
  0.00000000E+00  0.00000000E+00  0.00000000E+00
  0.00000000E+00  0.00000000E+00  0.00000000E+00
  0.00000000E+00  0.00000000E+00  0.00000000E+00
  0.00000000E+00  0.00000000E+00  0.00000000E+00
  0.00000000E+00  0.00000000E+00  0.00000000E+00
  0.00000000E+00  0.00000000E+00  0.00000000E+00
  0.00000000E+00  0.00000000E+00  0.00000000E+00
  0.00000000E+00  0.00000000E+00  0.00000000E+00
  0.00000000E+00  0.00000000E+00  0.00000000E+00
  0.00000000E+00  0.00000000E+00  0.00000000E+00
  0.00000000E+00  0.00000000E+00  0.00000000E+00
  0.00000000E+00  0.00000000E+00  0.00000000E+00
  0.00000000E+00  0.00000000E+00  0.00000000E+00
  0.00000000E+00  0.00000000E+00  0.00000000E+00
  0.00000000E+00  0.00000000E+00  0.00000000E+00
  0.00000000E+00  0.00000000E+00  0.00000000E+00
  0.00000000E+00  0.00000000E+00  0.00000000E+00
  0.00000000E+00  0.00000000E+00  0.00000000E+00
  0.00000000E+00  0.00000000E+00  0.00000000E+00
  0.00000000E+00  0.00000000E+00  0.00000000E+00
  0.00000000E+00  0.00000000E+00  0.00000000E+00
  0.00000000E+00  0.00000000E+00  0.00000000E+00
  0.00000000E+00  0.00000000E+00  0.00000000E+00
  0.00000000E+00  0.00000000E+00  0.00000000E+00
  0.00000000E+00  0.00000000E+00  0.00000000E+00
  0.00000000E+00  0.00000000E+00  0.00000000E+00
  0.00000000E+00  0.00000000E+00  0.00000000E+00
  0.00000000E+00  0.00000000E+00  0.00000000E+00
  0.00000000E+00  0.00000000E+00  0.00000000E+00
  0.00000000E+00  0.00000000E+00  0.00000000E+00
  0.00000000E+00  0.00000000E+00  0.00000000E+00
  0.00000000E+00  0.00000000E+00  0.00000000E+00
  0.00000000E+00  0.00000000E+00  0.00000000E+00
  0.00000000E+00  0.00000000E+00  0.00000000E+00
  0.00000000E+00  0.00000000E+00  0.00000000E+00
  0.00000000E+00  0.00000000E+00  0.00000000E+00
  0.00000000E+00  0.00000000E+00  0.00000000E+00
  0.00000000E+00  0.00000000E+00  0.00000000E+00
  0.00000000E+00  0.00000000E+00  0.00000000E+00
  0.00000000E+00  0.00000000E+00  0.00000000E+00
  0.00000000E+00  0.00000000E+00  0.00000000E+00
  0.00000000E+00  0.00000000E+00  0.00000000E+00
  0.00000000E+00  0.00000000E+00  0.00000000E+00
  0.00000000E+00  0.00000000E+00  0.00000000E+00
  0.00000000E+00  0.00000000E+00  0.00000000E+00
  0.00000000E+00  0.00000000E+00  0.00000000E+00
  0.00000000E+00  0.00000000E+00  0.00000000E+00
  0.00000000E+00  0.00000000E+00  0.00000000E+00
  0.00000000E+00  0.00000000E+00  0.00000000E+00
  0.00000000E+00  0.00000000E+00  0.00000000E+00
  0.00000000E+00  0.00000000E+00  0.00000000E+00
  0.00000000E+00  0.00000000E+00  0.00000000E+00
  0.00000000E+00  0.00000000E+00  0.00000000E+00
  0.00000000E+00  0.00000000E+00  0.00000000E+00
  0.00000000E+00  0.00000000E+00  0.00000000E+00
  0.00000000E+00  0.00000000E+00  0.00000000E+00
