Co   Pt   H                             
   1.00000000000000     
    10.5600004195999997    0.0000000000000000    0.0000000000000000
     5.2800002097999998    9.1452286273999999    0.0000000000000000
     0.0000000000000000    0.0000000000000000   22.0000000000000000
   Co   Pt   H 
    64    16     2
Selective dynamics
Direct
  0.7859267273522335  0.8692154746447258  0.3111634675000019   F   F   F
  0.0349990628503747  0.8688787392469024  0.3112723735136385   F   F   F
  0.0358047819419411  0.6186518932341301  0.3113152941090931   F   F   F
  0.7867273660717160  0.8679642656956403  0.0512459387681830   F   F   F
  0.0365582889316727  0.8681155879376945  0.0512968500727240   F   F   F
  0.0366385040692379  0.6180027208140757  0.0513268320045484   F   F   F
  0.6197458139953724  0.2015653887074080  0.1359842224363632   F   F   F
  0.3696581151044427  0.9516587404413883  0.1359628183681849   F   F   F
  0.0348345182158738  0.3687172094634263  0.3113948270636371   F   F   F
  0.0365963083346230  0.3681210410982487  0.0513400607590881   F   F   F
  0.8696445805581874  0.2016593805292644  0.1359685681136398   F   F   F
  0.9523036402402738  0.5352343559060486  0.2260953438499982   F   F   F
  0.2853763631495667  0.1183043133288635  0.3114213206409104   F   F   F
  0.5355171483865035  0.6187692055336598  0.3122170219636331   F   F   F
  0.2855922834769373  0.3687745316060855  0.3114115359227299   F   F   F
  0.2866892341020844  0.1181642286735496  0.0512986875090888   F   F   F
  0.5364312247542529  0.6180888009911953  0.0512321504227273   F   F   F
  0.2865494571265899  0.3680887902806873  0.0513541229409071   F   F   F
  0.6196855222964857  0.9516086189169641  0.1359457447227257   F   F   F
  0.7022590760165315  0.7852712819976517  0.2262162587227294   F   F   F
  0.8696068445877501  0.7016434521139203  0.1359744543409107   F   F   F
  0.6196787033340101  0.4516972511571211  0.1359518773045423   F   F   F
  0.2885322132695265  0.8645800945107567  0.3128072693590909   F   F   F
  0.2864484617105987  0.8681479668001657  0.0512844256863616   F   F   F
  0.6195877735811877  0.7016649391655889  0.1359121752636341   F   F   F
  0.2031472865803039  0.0335814295314449  0.2264461485909095   F   F   F
  0.5363817305147549  0.3704142103949835  0.3119414917318153   F   F   F
  0.5366727813368897  0.3679689281050500  0.0512926962318190   F   F   F
  0.5351572421946074  0.1193101546669837  0.3113280501636382   F   F   F
  0.5366727297449145  0.1180819610856503  0.0512831161363607   F   F   F
  0.8695347579033736  0.4517599086940010  0.1360032284090877   F   F   F
  0.1196881004386654  0.4516315490708749  0.1360589541590898   F   F   F
  0.0358632222208186  0.1193181171907156  0.3113421259545461   F   F   F
  0.0367073024034212  0.1181355239455755  0.0512976033590888   F   F   F
  0.1195841194112788  0.9517098196345941  0.1359996366499985   F   F   F
  0.4525381299012068  0.5354708962910024  0.2263112836863641   F   F   F
  0.3697648022638447  0.2016092602732655  0.1360238306954571   F   F   F
  0.1197124802163927  0.2016080101678313  0.1360219540863667   F   F   F
  0.9525466464421370  0.7851649095558386  0.2260375562636341   F   F   F
  0.7852191158475534  0.6181253346759803  0.3115110905772696   F   F   F
  0.2871183702820304  0.6195898222077503  0.3118875407727302   F   F   F
  0.7866122012324155  0.6180570610520562  0.0512491053409079   F   F   F
  0.2865146433568171  0.6180287077969808  0.0513054318772745   F   F   F
  0.3695989973367162  0.7017014523150777  0.1359655195227276   F   F   F
  0.3697484436136094  0.4516451135868707  0.1360192398909064   F   F   F
  0.2024366005492553  0.2853910598451606  0.2260329000909067   F   F   F
  0.7803855392511139  0.3722178784028713  0.3130212801727268   F   F   F
  0.7867185081021617  0.3680613783361437  0.0512697199636349   F   F   F
  0.9526449764527314  0.0356523253692203  0.2260804942818169   F   F   F
  0.4524133759797238  0.7844581101784414  0.2263732230999977   F   F   F
  0.7014931009400271  0.5354204777264400  0.2263746864818188   F   F   F
  0.2028255276852278  0.7854208956547524  0.2262963041727275   F   F   F
  0.4522715577789000  0.0352284750361207  0.2260910035045427   F   F   F
  0.1196483908887416  0.7016781133140881  0.1360106184272709   F   F   F
  0.7021079560808516  0.0355468030537835  0.2260678124590925   F   F   F
  0.7854578283319427  0.1184564992015922  0.3112832471636366   F   F   F
  0.5346476869795893  0.8687035071597364  0.3115273494727262   F   F   F
  0.7867138903031332  0.1180528005352812  0.0512607778181788   F   F   F
  0.5365868230827999  0.8681333544809533  0.0512481075045486   F   F   F
  0.2031693725981611  0.5355679913923055  0.2263005659499981   F   F   F
  0.9503760282386366  0.2862715202391044  0.2264808684590918   F   F   F
  0.8695596740848686  0.9516473608789653  0.1359644263590880   F   F   F
  0.7024781482821396  0.2858106824654740  0.2263164366136365   F   F   F
  0.4526090048461171  0.2861786980435568  0.2263016338227288   F   F   F
  0.8685305308730165  0.9525069619146862  0.4090055108772717   F   F   F
  0.1186683958151349  0.4519877714719485  0.4087249661909098   F   F   F
  0.1173849403329825  0.9536573952749308  0.4086775464227301   F   F   F
  0.8708722496790458  0.4518444254875646  0.4092034515272758   F   F   F
  0.3678822034734139  0.9547602876039178  0.4092517282590933   F   F   F
  0.8695946906974754  0.2013934113447746  0.4086514773181804   F   F   F
  0.1185565784176887  0.2026221071880201  0.4087520662136370   F   F   F
  0.6188194189911016  0.9529723043870746  0.4086543486863619   F   F   F
  0.8691034418982753  0.7027401025650590  0.4086568348590873   F   F   F
  0.3681427451623591  0.2024999139826349  0.4087833079454555   F   F   F
  0.3657140648939006  0.7056833526353046  0.4131926886727300   F   F   F
  0.6210949381789703  0.4504420518211987  0.4141780094318150   F   F   F
  0.1170936117370047  0.7032686465301055  0.4084430194318216   F   F   F
  0.6193866747679948  0.2010012201108395  0.4084234980272754   F   F   F
  0.3667247690409354  0.4508273130807581  0.4087957284272719   F   F   F
  0.6205477806346948  0.7046407167769289  0.4088181427454529   F   F   F
  0.4697739851607352  0.5513792182397950  0.4762361505954544   T   T   T
  0.5236289840983446  0.6021388753367417  0.4748808415363605   T   T   T
 
  0.00000000E+00  0.00000000E+00  0.00000000E+00
  0.00000000E+00  0.00000000E+00  0.00000000E+00
  0.00000000E+00  0.00000000E+00  0.00000000E+00
  0.00000000E+00  0.00000000E+00  0.00000000E+00
  0.00000000E+00  0.00000000E+00  0.00000000E+00
  0.00000000E+00  0.00000000E+00  0.00000000E+00
  0.00000000E+00  0.00000000E+00  0.00000000E+00
  0.00000000E+00  0.00000000E+00  0.00000000E+00
  0.00000000E+00  0.00000000E+00  0.00000000E+00
  0.00000000E+00  0.00000000E+00  0.00000000E+00
  0.00000000E+00  0.00000000E+00  0.00000000E+00
  0.00000000E+00  0.00000000E+00  0.00000000E+00
  0.00000000E+00  0.00000000E+00  0.00000000E+00
  0.00000000E+00  0.00000000E+00  0.00000000E+00
  0.00000000E+00  0.00000000E+00  0.00000000E+00
  0.00000000E+00  0.00000000E+00  0.00000000E+00
  0.00000000E+00  0.00000000E+00  0.00000000E+00
  0.00000000E+00  0.00000000E+00  0.00000000E+00
  0.00000000E+00  0.00000000E+00  0.00000000E+00
  0.00000000E+00  0.00000000E+00  0.00000000E+00
  0.00000000E+00  0.00000000E+00  0.00000000E+00
  0.00000000E+00  0.00000000E+00  0.00000000E+00
  0.00000000E+00  0.00000000E+00  0.00000000E+00
  0.00000000E+00  0.00000000E+00  0.00000000E+00
  0.00000000E+00  0.00000000E+00  0.00000000E+00
  0.00000000E+00  0.00000000E+00  0.00000000E+00
  0.00000000E+00  0.00000000E+00  0.00000000E+00
  0.00000000E+00  0.00000000E+00  0.00000000E+00
  0.00000000E+00  0.00000000E+00  0.00000000E+00
  0.00000000E+00  0.00000000E+00  0.00000000E+00
  0.00000000E+00  0.00000000E+00  0.00000000E+00
  0.00000000E+00  0.00000000E+00  0.00000000E+00
  0.00000000E+00  0.00000000E+00  0.00000000E+00
  0.00000000E+00  0.00000000E+00  0.00000000E+00
  0.00000000E+00  0.00000000E+00  0.00000000E+00
  0.00000000E+00  0.00000000E+00  0.00000000E+00
  0.00000000E+00  0.00000000E+00  0.00000000E+00
  0.00000000E+00  0.00000000E+00  0.00000000E+00
  0.00000000E+00  0.00000000E+00  0.00000000E+00
  0.00000000E+00  0.00000000E+00  0.00000000E+00
  0.00000000E+00  0.00000000E+00  0.00000000E+00
  0.00000000E+00  0.00000000E+00  0.00000000E+00
  0.00000000E+00  0.00000000E+00  0.00000000E+00
  0.00000000E+00  0.00000000E+00  0.00000000E+00
  0.00000000E+00  0.00000000E+00  0.00000000E+00
  0.00000000E+00  0.00000000E+00  0.00000000E+00
  0.00000000E+00  0.00000000E+00  0.00000000E+00
  0.00000000E+00  0.00000000E+00  0.00000000E+00
  0.00000000E+00  0.00000000E+00  0.00000000E+00
  0.00000000E+00  0.00000000E+00  0.00000000E+00
  0.00000000E+00  0.00000000E+00  0.00000000E+00
  0.00000000E+00  0.00000000E+00  0.00000000E+00
  0.00000000E+00  0.00000000E+00  0.00000000E+00
  0.00000000E+00  0.00000000E+00  0.00000000E+00
  0.00000000E+00  0.00000000E+00  0.00000000E+00
  0.00000000E+00  0.00000000E+00  0.00000000E+00
  0.00000000E+00  0.00000000E+00  0.00000000E+00
  0.00000000E+00  0.00000000E+00  0.00000000E+00
  0.00000000E+00  0.00000000E+00  0.00000000E+00
  0.00000000E+00  0.00000000E+00  0.00000000E+00
  0.00000000E+00  0.00000000E+00  0.00000000E+00
  0.00000000E+00  0.00000000E+00  0.00000000E+00
  0.00000000E+00  0.00000000E+00  0.00000000E+00
  0.00000000E+00  0.00000000E+00  0.00000000E+00
  0.00000000E+00  0.00000000E+00  0.00000000E+00
  0.00000000E+00  0.00000000E+00  0.00000000E+00
  0.00000000E+00  0.00000000E+00  0.00000000E+00
  0.00000000E+00  0.00000000E+00  0.00000000E+00
  0.00000000E+00  0.00000000E+00  0.00000000E+00
  0.00000000E+00  0.00000000E+00  0.00000000E+00
  0.00000000E+00  0.00000000E+00  0.00000000E+00
  0.00000000E+00  0.00000000E+00  0.00000000E+00
  0.00000000E+00  0.00000000E+00  0.00000000E+00
  0.00000000E+00  0.00000000E+00  0.00000000E+00
  0.00000000E+00  0.00000000E+00  0.00000000E+00
  0.00000000E+00  0.00000000E+00  0.00000000E+00
  0.00000000E+00  0.00000000E+00  0.00000000E+00
  0.00000000E+00  0.00000000E+00  0.00000000E+00
  0.00000000E+00  0.00000000E+00  0.00000000E+00
  0.00000000E+00  0.00000000E+00  0.00000000E+00
  0.00000000E+00  0.00000000E+00  0.00000000E+00
  0.00000000E+00  0.00000000E+00  0.00000000E+00
