PtM\(2)                                 
   1.00000000000000     
    10.5600004195999997    0.0000000000000000    0.0000000000000000
     5.2800002097999998    9.1452286273999999    0.0000000000000000
     0.0000000000000000    0.0000000000000000   22.0000000000000000
   Fe   Pt
    64    16
Direct
  0.7774737256238089  0.8712521983919163  0.3115992950836462
  0.0268850057254810  0.8713489128795844  0.3178005505557342
  0.0285983452524874  0.6206879384704921  0.3170367626862410
  0.8026267767302506  0.8615467289053932  0.0454892451876279
  0.0404195207477597  0.8617027190355486  0.0531321522047652
  0.0509400554706904  0.6062387638583131  0.0434550926193873
  0.6179624315608816  0.2089407032183763  0.1354205680997956
  0.3771081362833950  0.9520552039704336  0.1315154562944275
  0.0274488292934699  0.3739027766458291  0.3185106576798900
  0.0513505762271940  0.3533140917847114  0.0488741219257161
  0.8796363959047858  0.1964455081779052  0.1405242804440844
  0.9662762403911892  0.5302511670531972  0.2249227168150128
  0.2665100198744368  0.1316269875977452  0.3158171803552236
  0.5222123976952450  0.6212140656402068  0.3108047515464480
  0.2741581312670099  0.3767362810539228  0.3175664596087600
  0.2893256628197423  0.1234214636907276  0.0441537578169173
  0.5276420206582227  0.6272430854991295  0.0450746674141793
  0.2890943956934066  0.3689426548303233  0.0479302053683768
  0.6230886774275731  0.9589308993641559  0.1313536480520240
  0.7047615602146480  0.7854649176070368  0.2188021048795174
  0.8871502961294120  0.6953355374343919  0.1350361609358882
  0.6200488592654555  0.4538069531423476  0.1336872440671602
  0.2671778633355177  0.8732542516638394  0.3145744092167881
  0.2687421993772598  0.8846374397276942  0.0464864681288788
  0.6288621109661200  0.6995904720000329  0.1284261861015309
  0.2111147858519317  0.0314462225664597  0.2262403394974893
  0.5254252883538487  0.3715176543065528  0.3151025099588796
  0.5412157973226670  0.3693050226608542  0.0442518416329257
  0.5225375483276713  0.1248774930459290  0.3124068642480703
  0.5336944517521063  0.1355867285238975  0.0439851245929811
  0.8832888313781991  0.4470977980321126  0.1381582713939481
  0.1402232285355837  0.4469540011718017  0.1355590908702685
  0.0262461996791814  0.1237654390943774  0.3192993167399023
  0.0589967396281124  0.1018350567412280  0.0575243016972813
  0.1342935333633325  0.9375821956862053  0.1424705955196241
  0.4496383719637211  0.5226198360217770  0.2202015497676875
  0.3693613645050316  0.2161502974422453  0.1347813253956289
  0.1352238459034490  0.1985163722725925  0.1393178312196554
  0.9666565681753624  0.7779456920562776  0.2249818728158824
  0.7774624821042413  0.6173183565080894  0.3114211868816673
  0.2738715579107061  0.6180894369989191  0.3162254462850122
  0.8136378082470064  0.6035846078528162  0.0458125345898592
  0.2827328526126263  0.6136847731425905  0.0419772135337647
  0.3711045115055899  0.6919720544787046  0.1297637649009954
  0.3650899884555635  0.4537245194816308  0.1335287959571042
  0.2138273652542488  0.2858467917622285  0.2263276022334137
  0.7786209476854778  0.3681475941634276  0.3158297763494978
  0.7955667169560445  0.3623786591487640  0.0525784573592833
  0.9601310418546453  0.0312487513273477  0.2285212000409139
  0.4499546641930896  0.7794494561745897  0.2170181874867377
  0.7016701802985587  0.5344508835069970  0.2211123298342779
  0.2139011455505085  0.7706964253867721  0.2254327713518598
  0.4514513179858197  0.0415304768468654  0.2205402399624809
  0.1365430804706928  0.6811498989960868  0.1363537004090759
  0.7012739180082659  0.0407227536145952  0.2237607862481831
  0.7784741089464041  0.1229253060667973  0.3161355401324243
  0.5150674934014356  0.8750164414154218  0.3078695465230458
  0.7932310882971820  0.1130335594366600  0.0506874096276734
  0.5386045560999956  0.8807280389409659  0.0462069311763071
  0.2168933718919609  0.5274444543253458  0.2245696800763340
  0.9601081781684391  0.2836722931364501  0.2278170728055033
  0.8774744330591646  0.9478040731123117  0.1404896949312006
  0.6989827566105138  0.2892524068288470  0.2243542383915209
  0.4498714772503905  0.2936515285578826  0.2216301120983396
  0.8575501448447255  0.9563276870421963  0.4124104907889130
  0.1089730855712535  0.4568895713240473  0.4156194327115330
  0.1087609353785565  0.9559438001317213  0.4153193650506658
  0.8575723600926940  0.4569206001355083  0.4130087868582726
  0.3581180915517856  0.9564136768423331  0.4096735027589756
  0.8580580530803211  0.2066267685514957  0.4153113432050241
  0.1087107088359890  0.2068337957759849  0.4161768925017995
  0.6075104402736187  0.9561062858051603  0.4069370890746561
  0.8579036470837540  0.7063181190937403  0.4099455574070397
  0.3589038820477679  0.2058626478684824  0.4123989970462792
  0.3586724528707632  0.7064430669557675  0.4110587204894799
  0.6085687208699153  0.4569623918760427  0.4113844056310478
  0.1086352184632635  0.7057050442312822  0.4147071060973454
  0.6087017064211159  0.2056815061607561  0.4115955438305067
  0.3597014931634765  0.4560652017447446  0.4142019316276749
  0.6078959139567771  0.7062534289840323  0.4067315342960763
 
  0.00000000E+00  0.00000000E+00  0.00000000E+00
  0.00000000E+00  0.00000000E+00  0.00000000E+00
  0.00000000E+00  0.00000000E+00  0.00000000E+00
  0.00000000E+00  0.00000000E+00  0.00000000E+00
  0.00000000E+00  0.00000000E+00  0.00000000E+00
  0.00000000E+00  0.00000000E+00  0.00000000E+00
  0.00000000E+00  0.00000000E+00  0.00000000E+00
  0.00000000E+00  0.00000000E+00  0.00000000E+00
  0.00000000E+00  0.00000000E+00  0.00000000E+00
  0.00000000E+00  0.00000000E+00  0.00000000E+00
  0.00000000E+00  0.00000000E+00  0.00000000E+00
  0.00000000E+00  0.00000000E+00  0.00000000E+00
  0.00000000E+00  0.00000000E+00  0.00000000E+00
  0.00000000E+00  0.00000000E+00  0.00000000E+00
  0.00000000E+00  0.00000000E+00  0.00000000E+00
  0.00000000E+00  0.00000000E+00  0.00000000E+00
  0.00000000E+00  0.00000000E+00  0.00000000E+00
  0.00000000E+00  0.00000000E+00  0.00000000E+00
  0.00000000E+00  0.00000000E+00  0.00000000E+00
  0.00000000E+00  0.00000000E+00  0.00000000E+00
  0.00000000E+00  0.00000000E+00  0.00000000E+00
  0.00000000E+00  0.00000000E+00  0.00000000E+00
  0.00000000E+00  0.00000000E+00  0.00000000E+00
  0.00000000E+00  0.00000000E+00  0.00000000E+00
  0.00000000E+00  0.00000000E+00  0.00000000E+00
  0.00000000E+00  0.00000000E+00  0.00000000E+00
  0.00000000E+00  0.00000000E+00  0.00000000E+00
  0.00000000E+00  0.00000000E+00  0.00000000E+00
  0.00000000E+00  0.00000000E+00  0.00000000E+00
  0.00000000E+00  0.00000000E+00  0.00000000E+00
  0.00000000E+00  0.00000000E+00  0.00000000E+00
  0.00000000E+00  0.00000000E+00  0.00000000E+00
  0.00000000E+00  0.00000000E+00  0.00000000E+00
  0.00000000E+00  0.00000000E+00  0.00000000E+00
  0.00000000E+00  0.00000000E+00  0.00000000E+00
  0.00000000E+00  0.00000000E+00  0.00000000E+00
  0.00000000E+00  0.00000000E+00  0.00000000E+00
  0.00000000E+00  0.00000000E+00  0.00000000E+00
  0.00000000E+00  0.00000000E+00  0.00000000E+00
  0.00000000E+00  0.00000000E+00  0.00000000E+00
  0.00000000E+00  0.00000000E+00  0.00000000E+00
  0.00000000E+00  0.00000000E+00  0.00000000E+00
  0.00000000E+00  0.00000000E+00  0.00000000E+00
  0.00000000E+00  0.00000000E+00  0.00000000E+00
  0.00000000E+00  0.00000000E+00  0.00000000E+00
  0.00000000E+00  0.00000000E+00  0.00000000E+00
  0.00000000E+00  0.00000000E+00  0.00000000E+00
  0.00000000E+00  0.00000000E+00  0.00000000E+00
  0.00000000E+00  0.00000000E+00  0.00000000E+00
  0.00000000E+00  0.00000000E+00  0.00000000E+00
  0.00000000E+00  0.00000000E+00  0.00000000E+00
  0.00000000E+00  0.00000000E+00  0.00000000E+00
  0.00000000E+00  0.00000000E+00  0.00000000E+00
  0.00000000E+00  0.00000000E+00  0.00000000E+00
  0.00000000E+00  0.00000000E+00  0.00000000E+00
  0.00000000E+00  0.00000000E+00  0.00000000E+00
  0.00000000E+00  0.00000000E+00  0.00000000E+00
  0.00000000E+00  0.00000000E+00  0.00000000E+00
  0.00000000E+00  0.00000000E+00  0.00000000E+00
  0.00000000E+00  0.00000000E+00  0.00000000E+00
  0.00000000E+00  0.00000000E+00  0.00000000E+00
  0.00000000E+00  0.00000000E+00  0.00000000E+00
  0.00000000E+00  0.00000000E+00  0.00000000E+00
  0.00000000E+00  0.00000000E+00  0.00000000E+00
  0.00000000E+00  0.00000000E+00  0.00000000E+00
  0.00000000E+00  0.00000000E+00  0.00000000E+00
  0.00000000E+00  0.00000000E+00  0.00000000E+00
  0.00000000E+00  0.00000000E+00  0.00000000E+00
  0.00000000E+00  0.00000000E+00  0.00000000E+00
  0.00000000E+00  0.00000000E+00  0.00000000E+00
  0.00000000E+00  0.00000000E+00  0.00000000E+00
  0.00000000E+00  0.00000000E+00  0.00000000E+00
  0.00000000E+00  0.00000000E+00  0.00000000E+00
  0.00000000E+00  0.00000000E+00  0.00000000E+00
  0.00000000E+00  0.00000000E+00  0.00000000E+00
  0.00000000E+00  0.00000000E+00  0.00000000E+00
  0.00000000E+00  0.00000000E+00  0.00000000E+00
  0.00000000E+00  0.00000000E+00  0.00000000E+00
  0.00000000E+00  0.00000000E+00  0.00000000E+00
  0.00000000E+00  0.00000000E+00  0.00000000E+00
