Pt   H                                  
   1.00000000000000     
    11.2227001190000006    0.0000000000000000    0.0000000000000000
     5.6113500595000003    9.7191434021000003    0.0000000000000000
     0.0000000000000000    0.0000000000000000   22.0000000000000000
   Pt   H 
    80     2
Direct
  0.7851997712659062  0.8690199314435769  0.3268350353079501
  0.0352365917263248  0.8689352799253574  0.3268680525499328
  0.0353248297603488  0.6187550372307107  0.3266626156315209
  0.7856134983100935  0.8685840998921772  0.0226738650621262
  0.0357210872997631  0.8685410719553540  0.0226872398182794
  0.0357352616504118  0.6184419100003017  0.0226258252960145
  0.6187723280162923  0.2019741652049331  0.1258933046882862
  0.3685563240387019  0.9521866524200260  0.1259418711442177
  0.0352692879032072  0.3687740913694824  0.3267735244506476
  0.0357760484223640  0.3684119079364050  0.0226343400247180
  0.8688127615235648  0.2019682093075750  0.1260124275252902
  0.9520102349496005  0.5354564935345150  0.2262948800687380
  0.2849267339513119  0.1191092462612718  0.3267990948190665
  0.5353629024769304  0.6190996505149661  0.3264023496133450
  0.2847680525793196  0.3685859557807733  0.3263014566380917
  0.2855264553482693  0.1186084738239065  0.0226518777769819
  0.5356865268410216  0.6184839973353732  0.0225817392690539
  0.2855703439720675  0.3684892417850698  0.0225876073918457
  0.6187228317724198  0.9520613956691680  0.1259313018035255
  0.7020461033277458  0.7855225703480644  0.2262839291660168
  0.8688289542111998  0.7019986722433504  0.1258919287412126
  0.6189051820000352  0.4519612135503971  0.1258738903020711
  0.2852410591554435  0.8690194301796546  0.3267950853106922
  0.2855815630579585  0.8686348950739962  0.0226474304026954
  0.6188034584205997  0.7021155696717376  0.1258027504099330
  0.2020491704836645  0.0349595783325500  0.2265975887997324
  0.8684637173649323  0.9524649162926413  0.4302922669331433
  0.1183701773371928  0.4523333391050778  0.4300770919426542
  0.1176660304971951  0.9533152491685918  0.4302814931892458
  0.8689671641952948  0.4525835160191312  0.4301280955837203
  0.3685394947218402  0.9530598240934233  0.4301233222691619
  0.8692157025617733  0.2017265921117731  0.4302983177573432
  0.1183781030791421  0.2025794759839867  0.4302766741627608
  0.6184469244967120  0.9529727512296452  0.4301280659616517
  0.8688882429617439  0.7025491442302535  0.4301344603274107
  0.3682652226113909  0.2024902583097102  0.4300869189867502
  0.3666515039326948  0.7042076159473699  0.4290013872534308
  0.6201673097564417  0.4506794635724715  0.4290029863548863
  0.1176950463352051  0.7026408972270791  0.4300307008376745
  0.6185010120451456  0.2017618851816160  0.4300391727175422
  0.5349331268746341  0.3689291434112332  0.3265759224010972
  0.5356922288239541  0.3686163776046162  0.0226056283836271
  0.5350195269921602  0.1190420069870998  0.3266576356677653
  0.5356177056915699  0.1185509176893961  0.0226429653966250
  0.8689897648094871  0.4517925361793674  0.1259410723784540
  0.1187259064467206  0.4519190034033982  0.1259057678671487
  0.0351959952064165  0.1189162095039806  0.3268591751169094
  0.0358014949947196  0.1186035099123254  0.0227838504564818
  0.1186881200942554  0.9520461268766144  0.1260302791128212
  0.3676385674122229  0.4516297783972127  0.4292936233828201
  0.4519829476640423  0.5355489333136091  0.2261976178386277
  0.6195656857086604  0.7037493610770004  0.4291450531906745
  0.3686750179736961  0.2020053006825578  0.1258933764767326
  0.1186369228618095  0.2019514191682532  0.1262495529990657
  0.9519444290541924  0.7854993539925773  0.2263593194223242
  0.7856759388691448  0.6187356306374733  0.3265647682700579
  0.2851515818076489  0.6186643346239598  0.3265790320162875
  0.7856599126063276  0.6184509947965670  0.0226403920534295
  0.2857151531811818  0.6185302436980901  0.0226206370892217
  0.3687505702919137  0.7021295807660979  0.1258497307723849
  0.3687713700364251  0.4519536060698323  0.1258054637192238
  0.2017993916726836  0.2853056366689939  0.2262791577266288
  0.7851964934755150  0.3690688837844953  0.3267852414535564
  0.7857177640657900  0.3685182280475807  0.0226409063239454
  0.9518098997196617  0.0353958377842590  0.2264720225591970
  0.4520598157521487  0.7854542748003501  0.2261781894301324
  0.7019133370328393  0.5356441485011612  0.2261728819464261
  0.2019865004496338  0.7853355491137516  0.2263486846861772
  0.4518331126670765  0.0356130785188761  0.2262966934911790
  0.1187011429134629  0.7020657902377878  0.1258859617071329
  0.7019969489229216  0.0354758479024074  0.2263779057886987
  0.7851626161377337  0.1190181686334066  0.3269013711160352
  0.5349341760092149  0.8694715404793710  0.3265316143746025
  0.7856428964103093  0.1185884107553597  0.0226994500918551
  0.5356308517707405  0.8685417819316770  0.0226434489518377
  0.2020141611217230  0.5356179506746752  0.2261788635862300
  0.9513796826875561  0.2855900624682189  0.2265943025201282
  0.8687788600010903  0.9520044224335800  0.1259506056979250
  0.7018612501969537  0.2854392076764151  0.2263514256128074
  0.4520605095235505  0.2855401376713368  0.2261950348958054
  0.4738792592597862  0.5587115849108791  0.5293571388461473
  0.5131950584469914  0.5981934979498760  0.5300144122247822
 
  0.00000000E+00  0.00000000E+00  0.00000000E+00
  0.00000000E+00  0.00000000E+00  0.00000000E+00
  0.00000000E+00  0.00000000E+00  0.00000000E+00
  0.00000000E+00  0.00000000E+00  0.00000000E+00
  0.00000000E+00  0.00000000E+00  0.00000000E+00
  0.00000000E+00  0.00000000E+00  0.00000000E+00
  0.00000000E+00  0.00000000E+00  0.00000000E+00
  0.00000000E+00  0.00000000E+00  0.00000000E+00
  0.00000000E+00  0.00000000E+00  0.00000000E+00
  0.00000000E+00  0.00000000E+00  0.00000000E+00
  0.00000000E+00  0.00000000E+00  0.00000000E+00
  0.00000000E+00  0.00000000E+00  0.00000000E+00
  0.00000000E+00  0.00000000E+00  0.00000000E+00
  0.00000000E+00  0.00000000E+00  0.00000000E+00
  0.00000000E+00  0.00000000E+00  0.00000000E+00
  0.00000000E+00  0.00000000E+00  0.00000000E+00
  0.00000000E+00  0.00000000E+00  0.00000000E+00
  0.00000000E+00  0.00000000E+00  0.00000000E+00
  0.00000000E+00  0.00000000E+00  0.00000000E+00
  0.00000000E+00  0.00000000E+00  0.00000000E+00
  0.00000000E+00  0.00000000E+00  0.00000000E+00
  0.00000000E+00  0.00000000E+00  0.00000000E+00
  0.00000000E+00  0.00000000E+00  0.00000000E+00
  0.00000000E+00  0.00000000E+00  0.00000000E+00
  0.00000000E+00  0.00000000E+00  0.00000000E+00
  0.00000000E+00  0.00000000E+00  0.00000000E+00
  0.00000000E+00  0.00000000E+00  0.00000000E+00
  0.00000000E+00  0.00000000E+00  0.00000000E+00
  0.00000000E+00  0.00000000E+00  0.00000000E+00
  0.00000000E+00  0.00000000E+00  0.00000000E+00
  0.00000000E+00  0.00000000E+00  0.00000000E+00
  0.00000000E+00  0.00000000E+00  0.00000000E+00
  0.00000000E+00  0.00000000E+00  0.00000000E+00
  0.00000000E+00  0.00000000E+00  0.00000000E+00
  0.00000000E+00  0.00000000E+00  0.00000000E+00
  0.00000000E+00  0.00000000E+00  0.00000000E+00
  0.00000000E+00  0.00000000E+00  0.00000000E+00
  0.00000000E+00  0.00000000E+00  0.00000000E+00
  0.00000000E+00  0.00000000E+00  0.00000000E+00
  0.00000000E+00  0.00000000E+00  0.00000000E+00
  0.00000000E+00  0.00000000E+00  0.00000000E+00
  0.00000000E+00  0.00000000E+00  0.00000000E+00
  0.00000000E+00  0.00000000E+00  0.00000000E+00
  0.00000000E+00  0.00000000E+00  0.00000000E+00
  0.00000000E+00  0.00000000E+00  0.00000000E+00
  0.00000000E+00  0.00000000E+00  0.00000000E+00
  0.00000000E+00  0.00000000E+00  0.00000000E+00
  0.00000000E+00  0.00000000E+00  0.00000000E+00
  0.00000000E+00  0.00000000E+00  0.00000000E+00
  0.00000000E+00  0.00000000E+00  0.00000000E+00
  0.00000000E+00  0.00000000E+00  0.00000000E+00
  0.00000000E+00  0.00000000E+00  0.00000000E+00
  0.00000000E+00  0.00000000E+00  0.00000000E+00
  0.00000000E+00  0.00000000E+00  0.00000000E+00
  0.00000000E+00  0.00000000E+00  0.00000000E+00
  0.00000000E+00  0.00000000E+00  0.00000000E+00
  0.00000000E+00  0.00000000E+00  0.00000000E+00
  0.00000000E+00  0.00000000E+00  0.00000000E+00
  0.00000000E+00  0.00000000E+00  0.00000000E+00
  0.00000000E+00  0.00000000E+00  0.00000000E+00
  0.00000000E+00  0.00000000E+00  0.00000000E+00
  0.00000000E+00  0.00000000E+00  0.00000000E+00
  0.00000000E+00  0.00000000E+00  0.00000000E+00
  0.00000000E+00  0.00000000E+00  0.00000000E+00
  0.00000000E+00  0.00000000E+00  0.00000000E+00
  0.00000000E+00  0.00000000E+00  0.00000000E+00
  0.00000000E+00  0.00000000E+00  0.00000000E+00
  0.00000000E+00  0.00000000E+00  0.00000000E+00
  0.00000000E+00  0.00000000E+00  0.00000000E+00
  0.00000000E+00  0.00000000E+00  0.00000000E+00
  0.00000000E+00  0.00000000E+00  0.00000000E+00
  0.00000000E+00  0.00000000E+00  0.00000000E+00
  0.00000000E+00  0.00000000E+00  0.00000000E+00
  0.00000000E+00  0.00000000E+00  0.00000000E+00
  0.00000000E+00  0.00000000E+00  0.00000000E+00
  0.00000000E+00  0.00000000E+00  0.00000000E+00
  0.00000000E+00  0.00000000E+00  0.00000000E+00
  0.00000000E+00  0.00000000E+00  0.00000000E+00
  0.00000000E+00  0.00000000E+00  0.00000000E+00
  0.00000000E+00  0.00000000E+00  0.00000000E+00
  0.00000000E+00  0.00000000E+00  0.00000000E+00
  0.00000000E+00  0.00000000E+00  0.00000000E+00
