PtM\(2)                                 
   1.00000000000000     
    10.5600004195999997    0.0000000000000000    0.0000000000000000
     5.2800002097999998    9.1452286273999999    0.0000000000000000
     0.0000000000000000    0.0000000000000000   22.0000000000000000
   Co   Pt   H 
    64    16     2
Selective dynamics
Direct
  0.7856548702399522  0.8694076293378004  0.3107795609727262   F   F   F
  0.0345839173489608  0.8698521528008669  0.3111139444909057   F   F   F
  0.0354895289771022  0.6190840636982102  0.3109582164772746   F   F   F
  0.7867273660717160  0.8679642656956403  0.0512459387681830   F   F   F
  0.0365582889316727  0.8681155879376945  0.0512968500727240   F   F   F
  0.0366385040692379  0.6180027208140757  0.0513268320045484   F   F   F
  0.6197458139953724  0.2015653887074080  0.1359842224363632   F   F   F
  0.3696581151044427  0.9516587404413883  0.1359628183681849   F   F   F
  0.0350503448932287  0.3690646281042831  0.3110903580136366   F   F   F
  0.0365963083346230  0.3681210410982487  0.0513400607590881   F   F   F
  0.8696445805581874  0.2016593805292644  0.1359685681136398   F   F   F
  0.9516206379901959  0.5358493122542285  0.2258699037181842   F   F   F
  0.2850662127290420  0.1190527284072402  0.3111041649227246   F   F   F
  0.5350248836357139  0.6192164837118952  0.3132399988636365   F   F   F
  0.2838409694198205  0.3679094784923436  0.3107784297272715   F   F   F
  0.2866892341020844  0.1181642286735496  0.0512986875090888   F   F   F
  0.5364312247542529  0.6180888009911953  0.0512321504227273   F   F   F
  0.2865494571265899  0.3680887902806873  0.0513541229409071   F   F   F
  0.6196855222964857  0.9516086189169641  0.1359457447227257   F   F   F
  0.7018259473002715  0.7855493806656639  0.2259481151727272   F   F   F
  0.8696068445877501  0.7016434521139203  0.1359744543409107   F   F   F
  0.6196787033340101  0.4516972511571211  0.1359518773045423   F   F   F
  0.2864969480023660  0.8667077364859068  0.3120900989090885   F   F   F
  0.2864484617105987  0.8681479668001657  0.0512844256863616   F   F   F
  0.6195877735811877  0.7016649391655889  0.1359121752636341   F   F   F
  0.2027291042989461  0.0341212332915433  0.2261347378181853   F   F   F
  0.5348039826490307  0.3710604899950738  0.3125035345136382   F   F   F
  0.5366727813368897  0.3679689281050500  0.0512926962318190   F   F   F
  0.5351990202306283  0.1193532246126381  0.3110030846045433   F   F   F
  0.5366727297449145  0.1180819610856503  0.0512831161363607   F   F   F
  0.8695347579033736  0.4517599086940010  0.1360032284090877   F   F   F
  0.1196881004386654  0.4516315490708749  0.1360589541590898   F   F   F
  0.0350581895026565  0.1189876768897520  0.3111861686636388   F   F   F
  0.0367073024034212  0.1181355239455755  0.0512976033590888   F   F   F
  0.1195841194112788  0.9517098196345941  0.1359996366499985   F   F   F
  0.4526030939577907  0.5361268749269001  0.2266202249227263   F   F   F
  0.3697648022638447  0.2016092602732655  0.1360238306954571   F   F   F
  0.1197124802163927  0.2016080101678313  0.1360219540863667   F   F   F
  0.9523291694229385  0.7855462254903074  0.2258065561318148   F   F   F
  0.7854167361318503  0.6194738651176408  0.3112007568090931   F   F   F
  0.2870025346488703  0.6189583239439784  0.3125384510181846   F   F   F
  0.7866122012324155  0.6180570610520562  0.0512491053409079   F   F   F
  0.2865146433568171  0.6180287077969808  0.0513054318772745   F   F   F
  0.3695989973367162  0.7017014523150777  0.1359655195227276   F   F   F
  0.3697484436136094  0.4516451135868707  0.1360192398909064   F   F   F
  0.2019370955224957  0.2853135110020517  0.2254575639136362   F   F   F
  0.7827028007154411  0.3705431240119168  0.3120824770090920   F   F   F
  0.7867185081021617  0.3680613783361437  0.0512697199636349   F   F   F
  0.9523006737225828  0.0356969682225241  0.2257568771954510   F   F   F
  0.4525447459037721  0.7842255496283812  0.2264739554409090   F   F   F
  0.7006234576768051  0.5362137360139627  0.2264927342545420   F   F   F
  0.2026994094141799  0.7847402614952799  0.2263131465181800   F   F   F
  0.4523649931968095  0.0351095290650250  0.2258621804136354   F   F   F
  0.1196483908887416  0.7016781133140881  0.1360106184272709   F   F   F
  0.7019308402243780  0.0358668655824772  0.2258491515227306   F   F   F
  0.7857223332622354  0.1188628278076251  0.3110481545136352   F   F   F
  0.5352909859105424  0.8695063430973775  0.3112168523727306   F   F   F
  0.7867138903031332  0.1180528005352812  0.0512607778181788   F   F   F
  0.5365868230827999  0.8681333544809533  0.0512481075045486   F   F   F
  0.2033389544517519  0.5360676065343810  0.2262549075727307   F   F   F
  0.9505894230428211  0.2862428799709775  0.2261309412227277   F   F   F
  0.8695596740848686  0.9516473608789653  0.1359644263590880   F   F   F
  0.7011062587076609  0.2863863352801275  0.2262956338409126   F   F   F
  0.4525741036917452  0.2867920732284261  0.2262597484272746   F   F   F
  0.8686003261713324  0.9533624493845778  0.4087128495090937   F   F   F
  0.1174643678793643  0.4524076665512808  0.4081308421954546   F   F   F
  0.1176025995515744  0.9537562391460668  0.4086819481499973   F   F   F
  0.8702234471884864  0.4518587889666392  0.4082239873045452   F   F   F
  0.3671187018578124  0.9549064254922541  0.4082477789909120   F   F   F
  0.8689653244298583  0.2023996112195903  0.4086321696863635   F   F   F
  0.1181582331170858  0.2028824213143281  0.4084868654045479   F   F   F
  0.6187173732410542  0.9540270978420011  0.4080931735045468   F   F   F
  0.8693655718938444  0.7034211889275497  0.4081009088863610   F   F   F
  0.3677341420188043  0.2021286724381781  0.4081454947500021   F   F   F
  0.3651153286473843  0.7062447436195214  0.4140392160681827   F   F   F
  0.6214305226425765  0.4499650221286942  0.4140574974318199   F   F   F
  0.1165793734537246  0.7041994345778235  0.4080748947363659   F   F   F
  0.6194866952760734  0.2013053362148014  0.4080790461181820   F   F   F
  0.3651418816268048  0.4498462490018227  0.4112315900500008   F   F   F
  0.6216359205030884  0.7063822254640115  0.4113998211454515   F   F   F
  0.4383197481499508  0.5238543279001675  0.4596261080090898   T   T   T
  0.5495849156546626  0.6333116224833616  0.4592252104681826   T   T   T
 
  0.00000000E+00  0.00000000E+00  0.00000000E+00
  0.00000000E+00  0.00000000E+00  0.00000000E+00
  0.00000000E+00  0.00000000E+00  0.00000000E+00
  0.00000000E+00  0.00000000E+00  0.00000000E+00
  0.00000000E+00  0.00000000E+00  0.00000000E+00
  0.00000000E+00  0.00000000E+00  0.00000000E+00
  0.00000000E+00  0.00000000E+00  0.00000000E+00
  0.00000000E+00  0.00000000E+00  0.00000000E+00
  0.00000000E+00  0.00000000E+00  0.00000000E+00
  0.00000000E+00  0.00000000E+00  0.00000000E+00
  0.00000000E+00  0.00000000E+00  0.00000000E+00
  0.00000000E+00  0.00000000E+00  0.00000000E+00
  0.00000000E+00  0.00000000E+00  0.00000000E+00
  0.00000000E+00  0.00000000E+00  0.00000000E+00
  0.00000000E+00  0.00000000E+00  0.00000000E+00
  0.00000000E+00  0.00000000E+00  0.00000000E+00
  0.00000000E+00  0.00000000E+00  0.00000000E+00
  0.00000000E+00  0.00000000E+00  0.00000000E+00
  0.00000000E+00  0.00000000E+00  0.00000000E+00
  0.00000000E+00  0.00000000E+00  0.00000000E+00
  0.00000000E+00  0.00000000E+00  0.00000000E+00
  0.00000000E+00  0.00000000E+00  0.00000000E+00
  0.00000000E+00  0.00000000E+00  0.00000000E+00
  0.00000000E+00  0.00000000E+00  0.00000000E+00
  0.00000000E+00  0.00000000E+00  0.00000000E+00
  0.00000000E+00  0.00000000E+00  0.00000000E+00
  0.00000000E+00  0.00000000E+00  0.00000000E+00
  0.00000000E+00  0.00000000E+00  0.00000000E+00
  0.00000000E+00  0.00000000E+00  0.00000000E+00
  0.00000000E+00  0.00000000E+00  0.00000000E+00
  0.00000000E+00  0.00000000E+00  0.00000000E+00
  0.00000000E+00  0.00000000E+00  0.00000000E+00
  0.00000000E+00  0.00000000E+00  0.00000000E+00
  0.00000000E+00  0.00000000E+00  0.00000000E+00
  0.00000000E+00  0.00000000E+00  0.00000000E+00
  0.00000000E+00  0.00000000E+00  0.00000000E+00
  0.00000000E+00  0.00000000E+00  0.00000000E+00
  0.00000000E+00  0.00000000E+00  0.00000000E+00
  0.00000000E+00  0.00000000E+00  0.00000000E+00
  0.00000000E+00  0.00000000E+00  0.00000000E+00
  0.00000000E+00  0.00000000E+00  0.00000000E+00
  0.00000000E+00  0.00000000E+00  0.00000000E+00
  0.00000000E+00  0.00000000E+00  0.00000000E+00
  0.00000000E+00  0.00000000E+00  0.00000000E+00
  0.00000000E+00  0.00000000E+00  0.00000000E+00
  0.00000000E+00  0.00000000E+00  0.00000000E+00
  0.00000000E+00  0.00000000E+00  0.00000000E+00
  0.00000000E+00  0.00000000E+00  0.00000000E+00
  0.00000000E+00  0.00000000E+00  0.00000000E+00
  0.00000000E+00  0.00000000E+00  0.00000000E+00
  0.00000000E+00  0.00000000E+00  0.00000000E+00
  0.00000000E+00  0.00000000E+00  0.00000000E+00
  0.00000000E+00  0.00000000E+00  0.00000000E+00
  0.00000000E+00  0.00000000E+00  0.00000000E+00
  0.00000000E+00  0.00000000E+00  0.00000000E+00
  0.00000000E+00  0.00000000E+00  0.00000000E+00
  0.00000000E+00  0.00000000E+00  0.00000000E+00
  0.00000000E+00  0.00000000E+00  0.00000000E+00
  0.00000000E+00  0.00000000E+00  0.00000000E+00
  0.00000000E+00  0.00000000E+00  0.00000000E+00
  0.00000000E+00  0.00000000E+00  0.00000000E+00
  0.00000000E+00  0.00000000E+00  0.00000000E+00
  0.00000000E+00  0.00000000E+00  0.00000000E+00
  0.00000000E+00  0.00000000E+00  0.00000000E+00
  0.00000000E+00  0.00000000E+00  0.00000000E+00
  0.00000000E+00  0.00000000E+00  0.00000000E+00
  0.00000000E+00  0.00000000E+00  0.00000000E+00
  0.00000000E+00  0.00000000E+00  0.00000000E+00
  0.00000000E+00  0.00000000E+00  0.00000000E+00
  0.00000000E+00  0.00000000E+00  0.00000000E+00
  0.00000000E+00  0.00000000E+00  0.00000000E+00
  0.00000000E+00  0.00000000E+00  0.00000000E+00
  0.00000000E+00  0.00000000E+00  0.00000000E+00
  0.00000000E+00  0.00000000E+00  0.00000000E+00
  0.00000000E+00  0.00000000E+00  0.00000000E+00
  0.00000000E+00  0.00000000E+00  0.00000000E+00
  0.00000000E+00  0.00000000E+00  0.00000000E+00
  0.00000000E+00  0.00000000E+00  0.00000000E+00
  0.00000000E+00  0.00000000E+00  0.00000000E+00
  0.00000000E+00  0.00000000E+00  0.00000000E+00
  0.00000000E+00  0.00000000E+00  0.00000000E+00
  0.00000000E+00  0.00000000E+00  0.00000000E+00
