Pt111                                   
   1.00000000000000     
    10.7600000000006002    0.0000000000000000    0.0000000000000000
     5.3800000299999997    9.3184335428900003    0.0000000000000000
     0.0000000000000000    0.0000000000000000   22.0000000000000000
   Pt   H 
    80     1
Selective dynamics
Direct
  0.7840498920682890  0.8701670510745245  0.3330646919657170   T   T   T
  0.0342172272968142  0.8702129958873925  0.3326767964137645   T   T   T
  0.0341609850526794  0.6200332036833984  0.3328054294845089   T   T   T
  0.7870507737579260  0.8678426501169128  0.0118914650545463   F   F   F
  0.0372779274071746  0.8675957294741465  0.0120272303636355   F   F   F
  0.0372176546759775  0.6177043352519149  0.0121421606045473   F   F   F
  0.6194988703750042  0.2017495795561501  0.1202997087909097   F   F   F
  0.3695247491950440  0.9517159934962152  0.1204126198181825   F   F   F
  0.0341163211627276  0.3698237583292752  0.3328273697018602   T   T   T
  0.0373296096475073  0.3676911864241674  0.0122090446136340   F   F   F
  0.8694093127883136  0.2017026668859074  0.1202177461090912   F   F   F
  0.9518943933375610  0.5359083049149191  0.2268707002953079   T   T   T
  0.2837039980922071  0.1203490432771801  0.3327649361796929   T   T   T
  0.5336074737196839  0.6197367893795445  0.3348743974758435   T   T   T
  0.2844639826535342  0.3707719628740875  0.3339686723195001   T   T   T
  0.2870600198401618  0.1177634060756176  0.0121583736636381   F   F   F
  0.5373371835739604  0.6177040926789559  0.0120640131227248   F   F   F
  0.2872304570393638  0.3676393499864474  0.0122185184863639   F   F   F
  0.6193960525988089  0.9517600124504852  0.1202730608999971   F   F   F
  0.7019644377093428  0.7858545947897255  0.2264681936710886   T   T   T
  0.8695683047936456  0.7017388518899068  0.1203580528727244   F   F   F
  0.6196065814622855  0.4516686275679191  0.1203542382272715   F   F   F
  0.2845818677428937  0.8690870614151009  0.3337421683794801   T   T   T
  0.2871328715614752  0.8677371731721593  0.0121088706999970   F   F   F
  0.6195450881186346  0.7017667714107958  0.1203316727590931   F   F   F
  0.2019804069552507  0.0355597681502218  0.2264922294980636   T   T   T
  0.8662032226146934  0.9543336179605788  0.4415831212243546   T   T   T
  0.1155909139609150  0.4547170938792604  0.4412897519375960   T   T   T
  0.1156241774364233  0.9548238202895476  0.4410907895607679   T   T   T
  0.8665798620809468  0.4547138980990297  0.4410971875727157   T   T   T
  0.3663519087800324  0.9549026231728419  0.4411528148247470   T   T   T
  0.8665106935157070  0.2037987675938169  0.4411035895498472   T   T   T
  0.1161711948974826  0.2044722762877811  0.4407896611138824   T   T   T
  0.6163719558556764  0.9543427674019114  0.4415485349312860   T   T   T
  0.8662328406202704  0.7044153310129389  0.4417301883402942   T   T   T
  0.3665500487476336  0.2038112975534219  0.4412839081453441   T   T   T
  0.3644862184323401  0.7079665006280962  0.4457825868741239   T   T   T
  0.6202366990242041  0.4525731894331528  0.4457230495228899   T   T   T
  0.1139163184843639  0.7056889096065717  0.4406464855671715   T   T   T
  0.6173634423960124  0.2021622803917253  0.4405345115219106   T   T   T
  0.5335361558335237  0.3710035803629523  0.3349531639623464   T   T   T
  0.5371524948366897  0.3677961556548368  0.0120238872818206   F   F   F
  0.5336900483236704  0.1205220785485324  0.3327027665960145   T   T   T
  0.5372394747312015  0.1176870910708772  0.0119897472181805   F   F   F
  0.8695109600239164  0.4517377913921905  0.1203964047863622   F   F   F
  0.1195466443831279  0.4517831574505564  0.1205550520136356   F   F   F
  0.0340884890934845  0.1203407804166616  0.3326430663265540   T   T   T
  0.0372068182375713  0.1177123309353760  0.0119642838818166   F   F   F
  0.1194225913920732  0.9517349887489246  0.1203894900272715   F   F   F
  0.3641424842443612  0.4525272766829787  0.4459287841139599   T   T   T
  0.4518917150780695  0.5359006277673046  0.2287109620935794   T   T   T
  0.6172197858780635  0.7058156799761122  0.4404931653810351   T   T   T
  0.3694448685674274  0.2017132153648475  0.1205189144727257   F   F   F
  0.1194889419597800  0.2017415566841052  0.1204813487181795   F   F   F
  0.9518766195376855  0.7858588300737921  0.2265709598072334   T   T   T
  0.7839166334226988  0.6200401726403726  0.3326556544058974   T   T   T
  0.2847678654842909  0.6197381044721268  0.3350795909930184   T   T   T
  0.7872451077550267  0.6177036569190193  0.0120172767136353   F   F   F
  0.2871074736349613  0.6177557705492518  0.0121399544272762   F   F   F
  0.3696045377439319  0.7017165415843110  0.1204705405000013   F   F   F
  0.3695237591178469  0.4517107472008206  0.1205122697545420   F   F   F
  0.2019997007110774  0.2859508308071455  0.2267361466063846   T   T   T
  0.7828137397771329  0.3707182792040982  0.3336903194023009   T   T   T
  0.7872115450879349  0.3676675711567583  0.0119221864681833   F   F   F
  0.9517745501268635  0.0358417132338715  0.2266981183821812   T   T   T
  0.4519476490604006  0.7855064736005843  0.2268221842051332   T   T   T
  0.7014981842699157  0.5359152480455833  0.2268107676460644   T   T   T
  0.2022013466903942  0.7855147492483425  0.2269366692000148   T   T   T
  0.4519499464122134  0.0358529784770880  0.2268271462362179   T   T   T
  0.1195166028286963  0.7017393101321616  0.1204827953772707   F   F   F
  0.7017816317402605  0.0359628332142918  0.2264945220840104   T   T   T
  0.7839044439679839  0.1205117305946644  0.3326045805972484   T   T   T
  0.5337820698302878  0.8702273320428660  0.3326115875192173   T   T   T
  0.7871741037880611  0.1177562090719917  0.0118464780636387   F   F   F
  0.5372289676273567  0.8676320461896552  0.0119001054999970   F   F   F
  0.2022492410666956  0.5358951027084018  0.2270605386684608   T   T   T
  0.9516079535486810  0.2859486433028167  0.2264763152589993   T   T   T
  0.8694763515650124  0.9517922036442741  0.1202551203181841   F   F   F
  0.7014036225395728  0.2862180556766489  0.2266956291751043   T   T   T
  0.4519237218817480  0.2862251521594814  0.2268851302822057   T   T   T
  0.4507746953160279  0.5362173122649025  0.4896502343681775   T   T   T
 
  0.00000000E+00  0.00000000E+00  0.00000000E+00
  0.00000000E+00  0.00000000E+00  0.00000000E+00
  0.00000000E+00  0.00000000E+00  0.00000000E+00
  0.00000000E+00  0.00000000E+00  0.00000000E+00
  0.00000000E+00  0.00000000E+00  0.00000000E+00
  0.00000000E+00  0.00000000E+00  0.00000000E+00
  0.00000000E+00  0.00000000E+00  0.00000000E+00
  0.00000000E+00  0.00000000E+00  0.00000000E+00
  0.00000000E+00  0.00000000E+00  0.00000000E+00
  0.00000000E+00  0.00000000E+00  0.00000000E+00
  0.00000000E+00  0.00000000E+00  0.00000000E+00
  0.00000000E+00  0.00000000E+00  0.00000000E+00
  0.00000000E+00  0.00000000E+00  0.00000000E+00
  0.00000000E+00  0.00000000E+00  0.00000000E+00
  0.00000000E+00  0.00000000E+00  0.00000000E+00
  0.00000000E+00  0.00000000E+00  0.00000000E+00
  0.00000000E+00  0.00000000E+00  0.00000000E+00
  0.00000000E+00  0.00000000E+00  0.00000000E+00
  0.00000000E+00  0.00000000E+00  0.00000000E+00
  0.00000000E+00  0.00000000E+00  0.00000000E+00
  0.00000000E+00  0.00000000E+00  0.00000000E+00
  0.00000000E+00  0.00000000E+00  0.00000000E+00
  0.00000000E+00  0.00000000E+00  0.00000000E+00
  0.00000000E+00  0.00000000E+00  0.00000000E+00
  0.00000000E+00  0.00000000E+00  0.00000000E+00
  0.00000000E+00  0.00000000E+00  0.00000000E+00
  0.00000000E+00  0.00000000E+00  0.00000000E+00
  0.00000000E+00  0.00000000E+00  0.00000000E+00
  0.00000000E+00  0.00000000E+00  0.00000000E+00
  0.00000000E+00  0.00000000E+00  0.00000000E+00
  0.00000000E+00  0.00000000E+00  0.00000000E+00
  0.00000000E+00  0.00000000E+00  0.00000000E+00
  0.00000000E+00  0.00000000E+00  0.00000000E+00
  0.00000000E+00  0.00000000E+00  0.00000000E+00
  0.00000000E+00  0.00000000E+00  0.00000000E+00
  0.00000000E+00  0.00000000E+00  0.00000000E+00
  0.00000000E+00  0.00000000E+00  0.00000000E+00
  0.00000000E+00  0.00000000E+00  0.00000000E+00
  0.00000000E+00  0.00000000E+00  0.00000000E+00
  0.00000000E+00  0.00000000E+00  0.00000000E+00
  0.00000000E+00  0.00000000E+00  0.00000000E+00
  0.00000000E+00  0.00000000E+00  0.00000000E+00
  0.00000000E+00  0.00000000E+00  0.00000000E+00
  0.00000000E+00  0.00000000E+00  0.00000000E+00
  0.00000000E+00  0.00000000E+00  0.00000000E+00
  0.00000000E+00  0.00000000E+00  0.00000000E+00
  0.00000000E+00  0.00000000E+00  0.00000000E+00
  0.00000000E+00  0.00000000E+00  0.00000000E+00
  0.00000000E+00  0.00000000E+00  0.00000000E+00
  0.00000000E+00  0.00000000E+00  0.00000000E+00
  0.00000000E+00  0.00000000E+00  0.00000000E+00
  0.00000000E+00  0.00000000E+00  0.00000000E+00
  0.00000000E+00  0.00000000E+00  0.00000000E+00
  0.00000000E+00  0.00000000E+00  0.00000000E+00
  0.00000000E+00  0.00000000E+00  0.00000000E+00
  0.00000000E+00  0.00000000E+00  0.00000000E+00
  0.00000000E+00  0.00000000E+00  0.00000000E+00
  0.00000000E+00  0.00000000E+00  0.00000000E+00
  0.00000000E+00  0.00000000E+00  0.00000000E+00
  0.00000000E+00  0.00000000E+00  0.00000000E+00
  0.00000000E+00  0.00000000E+00  0.00000000E+00
  0.00000000E+00  0.00000000E+00  0.00000000E+00
  0.00000000E+00  0.00000000E+00  0.00000000E+00
  0.00000000E+00  0.00000000E+00  0.00000000E+00
  0.00000000E+00  0.00000000E+00  0.00000000E+00
  0.00000000E+00  0.00000000E+00  0.00000000E+00
  0.00000000E+00  0.00000000E+00  0.00000000E+00
  0.00000000E+00  0.00000000E+00  0.00000000E+00
  0.00000000E+00  0.00000000E+00  0.00000000E+00
  0.00000000E+00  0.00000000E+00  0.00000000E+00
  0.00000000E+00  0.00000000E+00  0.00000000E+00
  0.00000000E+00  0.00000000E+00  0.00000000E+00
  0.00000000E+00  0.00000000E+00  0.00000000E+00
  0.00000000E+00  0.00000000E+00  0.00000000E+00
  0.00000000E+00  0.00000000E+00  0.00000000E+00
  0.00000000E+00  0.00000000E+00  0.00000000E+00
  0.00000000E+00  0.00000000E+00  0.00000000E+00
  0.00000000E+00  0.00000000E+00  0.00000000E+00
  0.00000000E+00  0.00000000E+00  0.00000000E+00
  0.00000000E+00  0.00000000E+00  0.00000000E+00
  0.00000000E+00  0.00000000E+00  0.00000000E+00
