Pt111                                   
   1.00000000000000     
    11.2227001190000006    0.0000000000000000    0.0000000000000000
     5.6113500595000003    9.7191434021000003    0.0000000000000000
     0.0000000000000000    0.0000000000000000   22.0000000000000000
   Pt   H 
    80     2
Direct
  0.7853741466773542  0.8688515027190656  0.3267578720393604
  0.0354098181547979  0.8688266663468192  0.3267723864568037
  0.0354609520225851  0.6187873803116442  0.3267649433754853
  0.7852357769356451  0.8688960057970458  0.0225349654569155
  0.0352969129249148  0.8689052838317755  0.0225283495842420
  0.0353106579118046  0.6188160019673722  0.0225227594570535
  0.6186373653323374  0.2021790198307956  0.1258261482799130
  0.3686830589617919  0.9521576472019454  0.1258305645956639
  0.0354170492028226  0.3688346326530688  0.3267738962660318
  0.0353081778458863  0.3688986196495718  0.0225097894365693
  0.8687019459019937  0.2021411936946163  0.1258251417484808
  0.9520331767732153  0.5354756259852278  0.2263052799245513
  0.2853778257477397  0.1188864250664715  0.3267891367193955
  0.5354267892328726  0.6188085913726009  0.3267002443749314
  0.2853122900452098  0.3688253459409180  0.3267151165900188
  0.2852365125817202  0.1188647394934761  0.0225209317500472
  0.5353231924242455  0.6188424160676745  0.0225125596197400
  0.2852232426083033  0.3688697975253241  0.0225233385716770
  0.6186987033050551  0.9521581827009641  0.1258578564392865
  0.7020738573597892  0.7854630212151041  0.2263104328823475
  0.8686766216182243  0.7021607313478063  0.1258386534888880
  0.6187180849382389  0.4521222348164396  0.1258424275657084
  0.2853515568845976  0.8688709431315531  0.3267373733269771
  0.2852354894208662  0.8688825066030220  0.0225270933156279
  0.6186230533258364  0.7022068175873188  0.1258184463491752
  0.2020706907534381  0.0354384205653995  0.2263238050502193
  0.8687394935106343  0.9521797718321088  0.4300947598033115
  0.1187423094188385  0.4521759557738081  0.4300843759556409
  0.1186843213908700  0.9522650301145198  0.4300939734570863
  0.8686853147926343  0.4522326651100940  0.4300908527913970
  0.3688076038883260  0.9521481458304862  0.4300873733352734
  0.8687828410698265  0.2022118773472361  0.4300906697990058
  0.1186859753665852  0.2022014229641330  0.4300919090947914
  0.6187381826485771  0.9522128233754364  0.4300496272703822
  0.8688281575144445  0.7022136241504148  0.4300691005749525
  0.3687143383214553  0.2022715201483823  0.4300762178818180
  0.3686709053394236  0.7022267412362810  0.4299828259757380
  0.6187241694744435  0.4520916848313274  0.4299671680223158
  0.1187354448539053  0.7022204919295773  0.4301215161071537
  0.6186894570699102  0.2021928602079641  0.4300894938362614
  0.5353701202452515  0.3688151131479884  0.3267344076789816
  0.5353229444778055  0.3688515242410844  0.0225188261876739
  0.5353988856993032  0.1187800321434785  0.3267489274527235
  0.5352844188580108  0.1188472174425149  0.0225122413796475
  0.8687431829109823  0.4521163119444865  0.1258339657365770
  0.1186618328017060  0.4521336923287389  0.1258615833429736
  0.0354192059343640  0.1187705414643012  0.3267670684016588
  0.0353355735862169  0.1188658910547993  0.0225377173444504
  0.1186661233375820  0.9521806651971632  0.1258543459580714
  0.3687782021934156  0.4522285955702811  0.4300488205302823
  0.4520087493008438  0.5354605264686402  0.2262866383033150
  0.6187160642477993  0.7023021626137798  0.4299968433922581
  0.3686770453105575  0.2021458108845481  0.1258197763568727
  0.1186579069498141  0.2021872870605386  0.1258630045745975
  0.9520251686020511  0.7854638062166903  0.2263036935698537
  0.7854660678782527  0.6187902220882734  0.3267606134408478
  0.2854136038481707  0.6188195331014864  0.3267709042357163
  0.7852837391130106  0.6188576130137461  0.0225112044084135
  0.2852461012782739  0.6188516350821185  0.0225379505445159
  0.3686832297978246  0.7021648922019592  0.1258270348333018
  0.3686875066625132  0.4520960575855130  0.1258231083660975
  0.2020581530559476  0.2854212281990277  0.2262941432995185
  0.7853481468464211  0.3688903785703384  0.3267323431846906
  0.7852578610590407  0.3689142685321805  0.0225261667259258
  0.9520321170033123  0.0354850278055686  0.2262926236777997
  0.4520157232727259  0.7854799072256590  0.2262774938640164
  0.7020431045600839  0.5355441118396539  0.2262653116704078
  0.2020615560311517  0.7854197862194827  0.2262843982188125
  0.4519837473621597  0.0355049297823632  0.2262872168880676
  0.1186404143690546  0.7021652099018875  0.1258290745231817
  0.7020619156375631  0.0354900918863647  0.2263189488540865
  0.7853966745157820  0.1188946355067246  0.3267857802897163
  0.5353494581478124  0.8688892766251671  0.3267294329537711
  0.7852782275341617  0.1188589218167341  0.0225278501645253
  0.5352884954245936  0.8689065374618573  0.0225164836419080
  0.2020797399402531  0.5355085957184336  0.2263128811843048
  0.9519818235063765  0.2854957862995322  0.2263090099417068
  0.8687022914419467  0.9520960270899571  0.1258409898750284
  0.7020787219916205  0.2854374717523406  0.2262755355362036
  0.4520587143942463  0.2854447330331202  0.2262895048943119
  0.4731795563914914  0.5588197674508676  0.5682308411895060
  0.5114611309293807  0.5975118871558208  0.5718459628134284
 
  0.00000000E+00  0.00000000E+00  0.00000000E+00
  0.00000000E+00  0.00000000E+00  0.00000000E+00
  0.00000000E+00  0.00000000E+00  0.00000000E+00
  0.00000000E+00  0.00000000E+00  0.00000000E+00
  0.00000000E+00  0.00000000E+00  0.00000000E+00
  0.00000000E+00  0.00000000E+00  0.00000000E+00
  0.00000000E+00  0.00000000E+00  0.00000000E+00
  0.00000000E+00  0.00000000E+00  0.00000000E+00
  0.00000000E+00  0.00000000E+00  0.00000000E+00
  0.00000000E+00  0.00000000E+00  0.00000000E+00
  0.00000000E+00  0.00000000E+00  0.00000000E+00
  0.00000000E+00  0.00000000E+00  0.00000000E+00
  0.00000000E+00  0.00000000E+00  0.00000000E+00
  0.00000000E+00  0.00000000E+00  0.00000000E+00
  0.00000000E+00  0.00000000E+00  0.00000000E+00
  0.00000000E+00  0.00000000E+00  0.00000000E+00
  0.00000000E+00  0.00000000E+00  0.00000000E+00
  0.00000000E+00  0.00000000E+00  0.00000000E+00
  0.00000000E+00  0.00000000E+00  0.00000000E+00
  0.00000000E+00  0.00000000E+00  0.00000000E+00
  0.00000000E+00  0.00000000E+00  0.00000000E+00
  0.00000000E+00  0.00000000E+00  0.00000000E+00
  0.00000000E+00  0.00000000E+00  0.00000000E+00
  0.00000000E+00  0.00000000E+00  0.00000000E+00
  0.00000000E+00  0.00000000E+00  0.00000000E+00
  0.00000000E+00  0.00000000E+00  0.00000000E+00
  0.00000000E+00  0.00000000E+00  0.00000000E+00
  0.00000000E+00  0.00000000E+00  0.00000000E+00
  0.00000000E+00  0.00000000E+00  0.00000000E+00
  0.00000000E+00  0.00000000E+00  0.00000000E+00
  0.00000000E+00  0.00000000E+00  0.00000000E+00
  0.00000000E+00  0.00000000E+00  0.00000000E+00
  0.00000000E+00  0.00000000E+00  0.00000000E+00
  0.00000000E+00  0.00000000E+00  0.00000000E+00
  0.00000000E+00  0.00000000E+00  0.00000000E+00
  0.00000000E+00  0.00000000E+00  0.00000000E+00
  0.00000000E+00  0.00000000E+00  0.00000000E+00
  0.00000000E+00  0.00000000E+00  0.00000000E+00
  0.00000000E+00  0.00000000E+00  0.00000000E+00
  0.00000000E+00  0.00000000E+00  0.00000000E+00
  0.00000000E+00  0.00000000E+00  0.00000000E+00
  0.00000000E+00  0.00000000E+00  0.00000000E+00
  0.00000000E+00  0.00000000E+00  0.00000000E+00
  0.00000000E+00  0.00000000E+00  0.00000000E+00
  0.00000000E+00  0.00000000E+00  0.00000000E+00
  0.00000000E+00  0.00000000E+00  0.00000000E+00
  0.00000000E+00  0.00000000E+00  0.00000000E+00
  0.00000000E+00  0.00000000E+00  0.00000000E+00
  0.00000000E+00  0.00000000E+00  0.00000000E+00
  0.00000000E+00  0.00000000E+00  0.00000000E+00
  0.00000000E+00  0.00000000E+00  0.00000000E+00
  0.00000000E+00  0.00000000E+00  0.00000000E+00
  0.00000000E+00  0.00000000E+00  0.00000000E+00
  0.00000000E+00  0.00000000E+00  0.00000000E+00
  0.00000000E+00  0.00000000E+00  0.00000000E+00
  0.00000000E+00  0.00000000E+00  0.00000000E+00
  0.00000000E+00  0.00000000E+00  0.00000000E+00
  0.00000000E+00  0.00000000E+00  0.00000000E+00
  0.00000000E+00  0.00000000E+00  0.00000000E+00
  0.00000000E+00  0.00000000E+00  0.00000000E+00
  0.00000000E+00  0.00000000E+00  0.00000000E+00
  0.00000000E+00  0.00000000E+00  0.00000000E+00
  0.00000000E+00  0.00000000E+00  0.00000000E+00
  0.00000000E+00  0.00000000E+00  0.00000000E+00
  0.00000000E+00  0.00000000E+00  0.00000000E+00
  0.00000000E+00  0.00000000E+00  0.00000000E+00
  0.00000000E+00  0.00000000E+00  0.00000000E+00
  0.00000000E+00  0.00000000E+00  0.00000000E+00
  0.00000000E+00  0.00000000E+00  0.00000000E+00
  0.00000000E+00  0.00000000E+00  0.00000000E+00
  0.00000000E+00  0.00000000E+00  0.00000000E+00
  0.00000000E+00  0.00000000E+00  0.00000000E+00
  0.00000000E+00  0.00000000E+00  0.00000000E+00
  0.00000000E+00  0.00000000E+00  0.00000000E+00
  0.00000000E+00  0.00000000E+00  0.00000000E+00
  0.00000000E+00  0.00000000E+00  0.00000000E+00
  0.00000000E+00  0.00000000E+00  0.00000000E+00
  0.00000000E+00  0.00000000E+00  0.00000000E+00
  0.00000000E+00  0.00000000E+00  0.00000000E+00
  0.00000000E+00  0.00000000E+00  0.00000000E+00
  0.00000000E+00  0.00000000E+00  0.00000000E+00
  0.00000000E+00  0.00000000E+00  0.00000000E+00
