Co   Pt   H                             
   1.00000000000000     
    10.5600004195999997    0.0000000000000000    0.0000000000000000
     5.2800002097999998    9.1452286273999999    0.0000000000000000
     0.0000000000000000    0.0000000000000000   22.0000000000000000
   Co   Pt   H 
    64    16     2
Selective dynamics
Direct
  0.7857565020434062  0.8688651132356573  0.3115298405590732   T   T   T
  0.0354149661245226  0.8689329208025456  0.3114704162136807   T   T   T
  0.0357719217660092  0.6185276302836800  0.3114412120054728   T   T   T
  0.7867273660717160  0.8679642656956403  0.0512459387681830   F   F   F
  0.0365582889316727  0.8681155879376945  0.0512968500727240   F   F   F
  0.0366385040692379  0.6180027208140757  0.0513268320045484   F   F   F
  0.6197458139953724  0.2015653887074080  0.1359842224363632   F   F   F
  0.3696581151044427  0.9516587404413883  0.1359628183681849   F   F   F
  0.0358313539622038  0.3686512050865181  0.3115046237812112   T   T   T
  0.0365963083346230  0.3681210410982487  0.0513400607590881   F   F   F
  0.8696445805581874  0.2016593805292644  0.1359685681136398   F   F   F
  0.9526858754638043  0.5351660826261041  0.2260966643453002   T   T   T
  0.2855827164260231  0.1189081383813900  0.3115196372792834   T   T   T
  0.5359903014318508  0.6191962930356986  0.3106170957547316   T   T   T
  0.2852778982601781  0.3683577528397360  0.3113653921670127   T   T   T
  0.2866892341020844  0.1181642286735496  0.0512986875090888   F   F   F
  0.5364312247542529  0.6180888009911953  0.0512321504227273   F   F   F
  0.2865494571265899  0.3680887902806873  0.0513541229409071   F   F   F
  0.6196855222964857  0.9516086189169641  0.1359457447227257   F   F   F
  0.7025624262188658  0.7853606135601718  0.2261345155312099   T   T   T
  0.8696068445877501  0.7016434521139203  0.1359744543409107   F   F   F
  0.6196787033340101  0.4516972511571211  0.1359518773045423   F   F   F
  0.2857016741686144  0.8690400783780131  0.3113487562961953   T   T   T
  0.2864484617105987  0.8681479668001657  0.0512844256863616   F   F   F
  0.6195877735811877  0.7016649391655889  0.1359121752636341   F   F   F
  0.2024988778846402  0.0354460704580180  0.2260985433336789   T   T   T
  0.5356829122008716  0.3685107978386998  0.3109857436577353   T   T   T
  0.5366727813368897  0.3679689281050500  0.0512926962318190   F   F   F
  0.5354571797939511  0.1187876860956708  0.3114513985349199   T   T   T
  0.5366727297449145  0.1180819610856503  0.0512831161363607   F   F   F
  0.8695347579033736  0.4517599086940010  0.1360032284090877   F   F   F
  0.1196881004386654  0.4516315490708749  0.1360589541590898   F   F   F
  0.0356647867823433  0.1188470019959773  0.3115033042099795   T   T   T
  0.0367073024034212  0.1181355239455755  0.0512976033590888   F   F   F
  0.1195841194112788  0.9517098196345941  0.1359996366499985   F   F   F
  0.4524771416426671  0.5352639168372859  0.2258703793879618   T   T   T
  0.3697648022638447  0.2016092602732655  0.1360238306954571   F   F   F
  0.1197124802163927  0.2016080101678313  0.1360219540863667   F   F   F
  0.9525108761146420  0.7852710756577925  0.2261498561688177   T   T   T
  0.7860787767400580  0.6184068750818977  0.3113290867330283   T   T   T
  0.2853385521412906  0.6188679656797006  0.3109978625714932   T   T   T
  0.7866122012324155  0.6180570610520562  0.0512491053409079   F   F   F
  0.2865146433568171  0.6180287077969808  0.0513054318772745   F   F   F
  0.3695989973367162  0.7017014523150777  0.1359655195227276   F   F   F
  0.3697484436136094  0.4516451135868707  0.1360192398909064   F   F   F
  0.2024465109815108  0.2851804234881523  0.2260906297998620   T   T   T
  0.7858984896116227  0.3688150672395624  0.3113411309563608   T   T   T
  0.7867185081021617  0.3680613783361437  0.0512697199636349   F   F   F
  0.9526438218164829  0.0354045844643045  0.2261227798419800   T   T   T
  0.4523766028654266  0.7857168655819383  0.2258323858411010   T   T   T
  0.7029827372548965  0.5350984042106902  0.2258787206986794   T   T   T
  0.2023203902281346  0.7855970678700728  0.2260319014409502   T   T   T
  0.4523807467547373  0.0354174671962139  0.2261017996954134   T   T   T
  0.1196483908887416  0.7016781133140881  0.1360106184272709   F   F   F
  0.7024580266969438  0.0353175069920576  0.2261472643779897   T   T   T
  0.7859180748391612  0.1184646549451881  0.3114704466663747   T   T   T
  0.5352849841738831  0.8691883329157786  0.3113266062719891   T   T   T
  0.7867138903031332  0.1180528005352812  0.0512607778181788   F   F   F
  0.5365868230827999  0.8681333544809533  0.0512481075045486   F   F   F
  0.2024954214631410  0.5351143877194598  0.2260434098148046   T   T   T
  0.9527115285079893  0.2852307562116925  0.2260924313837875   T   T   T
  0.8695596740848686  0.9516473608789653  0.1359644263590880   F   F   F
  0.7028280614762288  0.2850945352807087  0.2260391470403916   T   T   T
  0.4523943250463107  0.2851873400280711  0.2260345694810562   T   T   T
  0.8687360797630860  0.9521719720698386  0.4090963434635011   T   T   T
  0.1187374057694355  0.4521317164289328  0.4090593966428678   T   T   T
  0.1185453824226408  0.9524008867063148  0.4090214312830365   T   T   T
  0.8689173456136625  0.4521109033391615  0.4089693528136159   T   T   T
  0.3686665765472192  0.9523637436209673  0.4089827564054571   T   T   T
  0.8689575056710860  0.2019856770555379  0.4090210906420567   T   T   T
  0.1187376906992159  0.2021853209369393  0.4091014150575075   T   T   T
  0.6187383122535292  0.9522422876735941  0.4089950063028370   T   T   T
  0.8688082163676489  0.7021693270354500  0.4089835334102659   T   T   T
  0.3686924718233133  0.2021804632770811  0.4090679839077325   T   T   T
  0.3683159982294426  0.7025353225649396  0.4074603191456830   T   T   T
  0.6190744766285531  0.4517745413947944  0.4074513164207879   T   T   T
  0.1185985761624227  0.7021955637149342  0.4088338544182152   T   T   T
  0.6187568175384405  0.2020421828932474  0.4088175610007819   T   T   T
  0.3685642765482505  0.4520102953906053  0.4082564390279566   T   T   T
  0.6189696632530861  0.7024135157370814  0.4082449402121255   T   T   T
  0.4740969612340493  0.5566975717079066  0.5219965098318036   T   T   T
  0.5160605540064418  0.5973825996261010  0.5224263882078655   T   T   T
 
  0.00000000E+00  0.00000000E+00  0.00000000E+00
  0.00000000E+00  0.00000000E+00  0.00000000E+00
  0.00000000E+00  0.00000000E+00  0.00000000E+00
  0.00000000E+00  0.00000000E+00  0.00000000E+00
  0.00000000E+00  0.00000000E+00  0.00000000E+00
  0.00000000E+00  0.00000000E+00  0.00000000E+00
  0.00000000E+00  0.00000000E+00  0.00000000E+00
  0.00000000E+00  0.00000000E+00  0.00000000E+00
  0.00000000E+00  0.00000000E+00  0.00000000E+00
  0.00000000E+00  0.00000000E+00  0.00000000E+00
  0.00000000E+00  0.00000000E+00  0.00000000E+00
  0.00000000E+00  0.00000000E+00  0.00000000E+00
  0.00000000E+00  0.00000000E+00  0.00000000E+00
  0.00000000E+00  0.00000000E+00  0.00000000E+00
  0.00000000E+00  0.00000000E+00  0.00000000E+00
  0.00000000E+00  0.00000000E+00  0.00000000E+00
  0.00000000E+00  0.00000000E+00  0.00000000E+00
  0.00000000E+00  0.00000000E+00  0.00000000E+00
  0.00000000E+00  0.00000000E+00  0.00000000E+00
  0.00000000E+00  0.00000000E+00  0.00000000E+00
  0.00000000E+00  0.00000000E+00  0.00000000E+00
  0.00000000E+00  0.00000000E+00  0.00000000E+00
  0.00000000E+00  0.00000000E+00  0.00000000E+00
  0.00000000E+00  0.00000000E+00  0.00000000E+00
  0.00000000E+00  0.00000000E+00  0.00000000E+00
  0.00000000E+00  0.00000000E+00  0.00000000E+00
  0.00000000E+00  0.00000000E+00  0.00000000E+00
  0.00000000E+00  0.00000000E+00  0.00000000E+00
  0.00000000E+00  0.00000000E+00  0.00000000E+00
  0.00000000E+00  0.00000000E+00  0.00000000E+00
  0.00000000E+00  0.00000000E+00  0.00000000E+00
  0.00000000E+00  0.00000000E+00  0.00000000E+00
  0.00000000E+00  0.00000000E+00  0.00000000E+00
  0.00000000E+00  0.00000000E+00  0.00000000E+00
  0.00000000E+00  0.00000000E+00  0.00000000E+00
  0.00000000E+00  0.00000000E+00  0.00000000E+00
  0.00000000E+00  0.00000000E+00  0.00000000E+00
  0.00000000E+00  0.00000000E+00  0.00000000E+00
  0.00000000E+00  0.00000000E+00  0.00000000E+00
  0.00000000E+00  0.00000000E+00  0.00000000E+00
  0.00000000E+00  0.00000000E+00  0.00000000E+00
  0.00000000E+00  0.00000000E+00  0.00000000E+00
  0.00000000E+00  0.00000000E+00  0.00000000E+00
  0.00000000E+00  0.00000000E+00  0.00000000E+00
  0.00000000E+00  0.00000000E+00  0.00000000E+00
  0.00000000E+00  0.00000000E+00  0.00000000E+00
  0.00000000E+00  0.00000000E+00  0.00000000E+00
  0.00000000E+00  0.00000000E+00  0.00000000E+00
  0.00000000E+00  0.00000000E+00  0.00000000E+00
  0.00000000E+00  0.00000000E+00  0.00000000E+00
  0.00000000E+00  0.00000000E+00  0.00000000E+00
  0.00000000E+00  0.00000000E+00  0.00000000E+00
  0.00000000E+00  0.00000000E+00  0.00000000E+00
  0.00000000E+00  0.00000000E+00  0.00000000E+00
  0.00000000E+00  0.00000000E+00  0.00000000E+00
  0.00000000E+00  0.00000000E+00  0.00000000E+00
  0.00000000E+00  0.00000000E+00  0.00000000E+00
  0.00000000E+00  0.00000000E+00  0.00000000E+00
  0.00000000E+00  0.00000000E+00  0.00000000E+00
  0.00000000E+00  0.00000000E+00  0.00000000E+00
  0.00000000E+00  0.00000000E+00  0.00000000E+00
  0.00000000E+00  0.00000000E+00  0.00000000E+00
  0.00000000E+00  0.00000000E+00  0.00000000E+00
  0.00000000E+00  0.00000000E+00  0.00000000E+00
  0.00000000E+00  0.00000000E+00  0.00000000E+00
  0.00000000E+00  0.00000000E+00  0.00000000E+00
  0.00000000E+00  0.00000000E+00  0.00000000E+00
  0.00000000E+00  0.00000000E+00  0.00000000E+00
  0.00000000E+00  0.00000000E+00  0.00000000E+00
  0.00000000E+00  0.00000000E+00  0.00000000E+00
  0.00000000E+00  0.00000000E+00  0.00000000E+00
  0.00000000E+00  0.00000000E+00  0.00000000E+00
  0.00000000E+00  0.00000000E+00  0.00000000E+00
  0.00000000E+00  0.00000000E+00  0.00000000E+00
  0.00000000E+00  0.00000000E+00  0.00000000E+00
  0.00000000E+00  0.00000000E+00  0.00000000E+00
  0.00000000E+00  0.00000000E+00  0.00000000E+00
  0.00000000E+00  0.00000000E+00  0.00000000E+00
  0.00000000E+00  0.00000000E+00  0.00000000E+00
  0.00000000E+00  0.00000000E+00  0.00000000E+00
  0.00000000E+00  0.00000000E+00  0.00000000E+00
  0.00000000E+00  0.00000000E+00  0.00000000E+00
