Pt111\(1\1\1)\(2)                       
   1.00000000000000     
    10.5600004195999997    0.0000000000000000    0.0000000000000000
    -5.2800002097999998    9.1452286273999999    0.0000000000000000
     0.0000000000000000    0.0000000000000000   20.0000000000000000
   Pt   H 
    64     2
Selective dynamics
Direct
  0.9999984446215961  0.0000015553793773  0.0557922949150012   F   F   F
  0.3338902233288508  0.1689094708600791  0.1812187450631342   T   T   T
  0.1699656354500902  0.3339800266979012  0.3075781047235679   T   T   T
  0.0010876993180986  0.0019018666253885  0.4164863249210882   T   T   T
  0.9999984416169312  0.2500015483757210  0.0557922949150012   F   F   F
  0.3336127693409452  0.4165070736297096  0.1899786311351548   T   T   T
  0.1689905120613986  0.0874438897128229  0.2993898299253175   T   T   T
  0.0010335285880885  0.2508570719117742  0.4186293484060144   T   T   T
  0.2499984416169312  0.2500015483757210  0.0557922949150012   F   F   F
  0.0853597452481196  0.4164763501054125  0.1785529111331030   T   T   T
  0.4171627875032442  0.0858554966379685  0.2978847578214854   T   T   T
  0.2462871977878862  0.2467574721534049  0.4449827917651064   T   T   T
  0.2499984446215961  0.0000015553793773  0.0557922949150012   F   F   F
  0.0859570776492049  0.1686587742831236  0.1790083998424237   T   T   T
  0.4164966984917413  0.3338286396304682  0.3121831647706941   T   T   T
  0.2496532253345194  0.0016105442897043  0.4156290595620220   T   T   T
  0.4999984446215961  0.0000015553793773  0.0557922949150012   F   F   F
  0.8340625435420961  0.1669441215280401  0.1762022225755686   T   T   T
  0.6644581716345996  0.3331439276678054  0.2979167614951521   T   T   T
  0.5004993029377189  0.0003865808814396  0.4160105141514592   T   T   T
  0.4999984296188273  0.2500015483757210  0.0557922949150012   F   F   F
  0.8326703577884871  0.4162089292424511  0.1750490670115852   T   T   T
  0.6671431950191291  0.0833530831242228  0.2957264327277827   T   T   T
  0.5023991417407387  0.2491069776574548  0.4282191829714819   T   T   T
  0.7499984076207227  0.2500015483757210  0.0557922949150012   F   F   F
  0.5812332421891000  0.4162854765552311  0.1810859293015810   T   T   T
  0.9183032357090752  0.0844147564327784  0.2956451905171491   T   T   T
  0.7505912453452197  0.2505477547555301  0.4160568619178093   T   T   T
  0.7499984216197078  0.0000015553793773  0.0557922949150012   F   F   F
  0.5824899803541612  0.1675025750056136  0.1778270153116139   T   T   T
  0.9174427103508407  0.3327200647638762  0.2945981798081547   T   T   T
  0.7507503190931857  0.0005149215975990  0.4166985260395961   T   T   T
  0.9999984376190483  0.5000015423780582  0.0557922949150012   F   F   F
  0.3335656857060556  0.6646091858718250  0.1786274305481896   T   T   T
  0.1682430313941197  0.8343322745583279  0.2917798983596924   T   T   T
  0.9998703061718288  0.5006572074434033  0.4141204136810401   T   T   T
  0.9999984326223199  0.7500015093827130  0.0557922949150012   F   F   F
  0.3339103453201062  0.9174231043940182  0.1750010226200729   T   T   T
  0.1692723189032250  0.5811787018716714  0.2978706382938583   T   T   T
  0.9999558470317353  0.7512189372138991  0.4101551466950326   T   T   T
  0.2499984326223199  0.7500015093827130  0.0557922949150012   F   F   F
  0.0843043288661036  0.9181719623322948  0.1748463830701752   T   T   T
  0.4163605148705614  0.5804050489038204  0.3076575387678773   T   T   T
  0.2504782072816383  0.7511503820162133  0.4141049092995814   T   T   T
  0.2499984376190483  0.5000015423780582  0.0557922949150012   F   F   F
  0.0841026387415766  0.6659515910421305  0.1745062511608566   T   T   T
  0.4177876770635791  0.8330230946483184  0.2945732665408869   T   T   T
  0.2475288326745968  0.5037491968205643  0.4349763191990164   T   T   T
  0.4999984376190483  0.5000015423780582  0.0557922949150012   F   F   F
  0.8318542844003218  0.6657219341445852  0.1748489073885509   T   T   T
  0.6660925033361167  0.8322648775198473  0.2958133150557387   T   T   T
  0.5046203151560604  0.5052042918897186  0.4425501313862910   T   T   T
  0.4999984326223199  0.7500015093827130  0.0557922949150012   F   F   F
  0.8334344104477580  0.9166016432865263  0.1757815067808295   T   T   T
  0.6629638935810291  0.5814371569793266  0.2993863153121552   T   T   T
  0.5002496902867151  0.7502829160131768  0.4187819369126657   T   T   T
  0.7499984106242152  0.7500015093827130  0.0557922949150012   F   F   F
  0.5831051619358689  0.9160115164777594  0.1762288293004630   T   T   T
  0.9161188141559506  0.5821898761301512  0.2918114105452787   T   T   T
  0.7493009615278581  0.7501695412522409  0.4168549920636764   T   T   T
  0.7499983926190481  0.5000015423780582  0.0557922949150012   F   F   F
  0.5813629385879437  0.6641207069122643  0.1791177026491653   T   T   T
  0.9164102406446943  0.8338479232920690  0.2927709833107883   T   T   T
  0.7496739276538591  0.5014686709798326  0.4156626797466956   T   T   T
  0.3142385114701511  0.4295445393416202  0.4915998872441492   T   T   T
  0.4297366800471067  0.3123565348574147  0.4883136922406592   T   T   T
 
  0.00000000E+00  0.00000000E+00  0.00000000E+00
  0.00000000E+00  0.00000000E+00  0.00000000E+00
  0.00000000E+00  0.00000000E+00  0.00000000E+00
  0.00000000E+00  0.00000000E+00  0.00000000E+00
  0.00000000E+00  0.00000000E+00  0.00000000E+00
  0.00000000E+00  0.00000000E+00  0.00000000E+00
  0.00000000E+00  0.00000000E+00  0.00000000E+00
  0.00000000E+00  0.00000000E+00  0.00000000E+00
  0.00000000E+00  0.00000000E+00  0.00000000E+00
  0.00000000E+00  0.00000000E+00  0.00000000E+00
  0.00000000E+00  0.00000000E+00  0.00000000E+00
  0.00000000E+00  0.00000000E+00  0.00000000E+00
  0.00000000E+00  0.00000000E+00  0.00000000E+00
  0.00000000E+00  0.00000000E+00  0.00000000E+00
  0.00000000E+00  0.00000000E+00  0.00000000E+00
  0.00000000E+00  0.00000000E+00  0.00000000E+00
  0.00000000E+00  0.00000000E+00  0.00000000E+00
  0.00000000E+00  0.00000000E+00  0.00000000E+00
  0.00000000E+00  0.00000000E+00  0.00000000E+00
  0.00000000E+00  0.00000000E+00  0.00000000E+00
  0.00000000E+00  0.00000000E+00  0.00000000E+00
  0.00000000E+00  0.00000000E+00  0.00000000E+00
  0.00000000E+00  0.00000000E+00  0.00000000E+00
  0.00000000E+00  0.00000000E+00  0.00000000E+00
  0.00000000E+00  0.00000000E+00  0.00000000E+00
  0.00000000E+00  0.00000000E+00  0.00000000E+00
  0.00000000E+00  0.00000000E+00  0.00000000E+00
  0.00000000E+00  0.00000000E+00  0.00000000E+00
  0.00000000E+00  0.00000000E+00  0.00000000E+00
  0.00000000E+00  0.00000000E+00  0.00000000E+00
  0.00000000E+00  0.00000000E+00  0.00000000E+00
  0.00000000E+00  0.00000000E+00  0.00000000E+00
  0.00000000E+00  0.00000000E+00  0.00000000E+00
  0.00000000E+00  0.00000000E+00  0.00000000E+00
  0.00000000E+00  0.00000000E+00  0.00000000E+00
  0.00000000E+00  0.00000000E+00  0.00000000E+00
  0.00000000E+00  0.00000000E+00  0.00000000E+00
  0.00000000E+00  0.00000000E+00  0.00000000E+00
  0.00000000E+00  0.00000000E+00  0.00000000E+00
  0.00000000E+00  0.00000000E+00  0.00000000E+00
  0.00000000E+00  0.00000000E+00  0.00000000E+00
  0.00000000E+00  0.00000000E+00  0.00000000E+00
  0.00000000E+00  0.00000000E+00  0.00000000E+00
  0.00000000E+00  0.00000000E+00  0.00000000E+00
  0.00000000E+00  0.00000000E+00  0.00000000E+00
  0.00000000E+00  0.00000000E+00  0.00000000E+00
  0.00000000E+00  0.00000000E+00  0.00000000E+00
  0.00000000E+00  0.00000000E+00  0.00000000E+00
  0.00000000E+00  0.00000000E+00  0.00000000E+00
  0.00000000E+00  0.00000000E+00  0.00000000E+00
  0.00000000E+00  0.00000000E+00  0.00000000E+00
  0.00000000E+00  0.00000000E+00  0.00000000E+00
  0.00000000E+00  0.00000000E+00  0.00000000E+00
  0.00000000E+00  0.00000000E+00  0.00000000E+00
  0.00000000E+00  0.00000000E+00  0.00000000E+00
  0.00000000E+00  0.00000000E+00  0.00000000E+00
  0.00000000E+00  0.00000000E+00  0.00000000E+00
  0.00000000E+00  0.00000000E+00  0.00000000E+00
  0.00000000E+00  0.00000000E+00  0.00000000E+00
  0.00000000E+00  0.00000000E+00  0.00000000E+00
  0.00000000E+00  0.00000000E+00  0.00000000E+00
  0.00000000E+00  0.00000000E+00  0.00000000E+00
  0.00000000E+00  0.00000000E+00  0.00000000E+00
  0.00000000E+00  0.00000000E+00  0.00000000E+00
  0.00000000E+00  0.00000000E+00  0.00000000E+00
  0.00000000E+00  0.00000000E+00  0.00000000E+00
