Pt111                                   
   1.00000000000000     
    11.2227001190000006    0.0000000000000000    0.0000000000000000
     5.6113500595000003    9.7191434021000003    0.0000000000000000
     0.0000000000000000    0.0000000000000000   22.0000000000000000
   Pt
    80
Direct
  0.7848143373086095  0.8692647848943487  0.3271709983068637
  0.0348617040573778  0.8692106635467229  0.3271772726879834
  0.0347924751610380  0.6191989089865612  0.3271337030859585
  0.7865211590489598  0.8681029305240799  0.0228654281801229
  0.0365118793831226  0.8681359637200343  0.0228615369598586
  0.0365973211125012  0.6180689799625796  0.0228688354138011
  0.6191514882548724  0.2018815176557998  0.1261898022235417
  0.3692118349864544  0.9518486481051573  0.1262216168595426
  0.0348201856036268  0.3692384241873271  0.3271578566563200
  0.0365701989323276  0.3680832523659635  0.0228548044327763
  0.8691809275314121  0.2019007486829777  0.1262259727455331
  0.9519449375487119  0.5356209697186249  0.2266734752743957
  0.2847720733500070  0.1192245822244984  0.3271798892926031
  0.5347995984891265  0.6192357577272842  0.3271511289253053
  0.2847689734501798  0.3692401388885840  0.3271330134068042
  0.2865755654263203  0.1180378737735499  0.0228797511425691
  0.5366188205081153  0.6180600150390518  0.0228967889405861
  0.2865051994146154  0.3680905318023209  0.0228368698996026
  0.6191824872901504  0.9518870452829543  0.1262357236262334
  0.7020302116423872  0.7855447799978880  0.2266783799001274
  0.8692444005250430  0.7018928620114973  0.1262104935119887
  0.6192039302002998  0.4518801260055602  0.1262153420217532
  0.2848058421215681  0.8692756028225795  0.3271473261092483
  0.2865299540733567  0.8680791052308777  0.0228697272695576
  0.6191826681694113  0.7018817980406975  0.1262216309566534
  0.2019353640205368  0.0356317252766860  0.2266882764621975
  0.8677276384827347  0.9528221792289966  0.4305335792076572
  0.1176269918871092  0.4528727543643587  0.4304854137888190
  0.1176287413712890  0.9528771376818009  0.4304861307726708
  0.8677059592494060  0.4527736844257153  0.4305092830246447
  0.3676988338112356  0.9527968818598689  0.4305060849912927
  0.8676819440955766  0.2028877540028061  0.4305130938426518
  0.1176287617355466  0.2028276996184864  0.4305021208725979
  0.6176660328105458  0.9528835877143880  0.4304802204773007
  0.8677039589949317  0.7028399036314303  0.4305015556585361
  0.3676263855558415  0.2028683590163794  0.4305083801107957
  0.3676897885981663  0.7028517837486046  0.4305023746821039
  0.6176465583278186  0.4528566608656278  0.4304717672148922
  0.1177019905588098  0.7027761083136378  0.4304840011054197
  0.6176767411590424  0.2028529744414280  0.4305046124621427
  0.5347920083981359  0.3692757361908552  0.3271556302803451
  0.5365929532031524  0.3680780571619450  0.0228652809490520
  0.5348103535260749  0.1192347329402615  0.3271661221092717
  0.5365222441794945  0.1180747763995704  0.0228658211279424
  0.8692118648309041  0.4518480129824858  0.1261912863399596
  0.1191671983859431  0.4518510180398196  0.1261870154902629
  0.0347876826007446  0.1191949088489888  0.3271567949517982
  0.0365273231097781  0.1180394703419737  0.0228705030521808
  0.1191926531889558  0.9518360111188722  0.1262070302634497
  0.3676259206820403  0.4528035654150536  0.4304977860349671
  0.4519345172578144  0.5356154473079029  0.2266735285763539
  0.6176871528914815  0.7028855319104517  0.4304892315696673
  0.3691736972541310  0.2019012486465323  0.1262000821571132
  0.1191438334972373  0.2018639291576320  0.1261742798966121
  0.9520010267694234  0.7856416547773124  0.2266872821011639
  0.7848013579803959  0.6192460573094178  0.3271724940084360
  0.2848172298876953  0.6191976951167381  0.3271535219498127
  0.7865949080947537  0.6181023368775990  0.0228989164775709
  0.2865986789442292  0.6180425579744129  0.0228859783848590
  0.3692022910510961  0.7018700598157499  0.1262001859782072
  0.3692168439127327  0.4518330608588201  0.1262040240955175
  0.2019591154474365  0.2855255751190238  0.2266680778660732
  0.7847746236485466  0.3692486949426405  0.3271559909332969
  0.7865660332216322  0.3680765026963337  0.0228449162175724
  0.9519448787943482  0.0355924012364699  0.2266973114589008
  0.4519611284968214  0.7856145772923526  0.2266798918112310
  0.7020116607212377  0.5355745393867973  0.2266952638524618
  0.2019939517220154  0.7855475925774377  0.2266828764214354
  0.4519000933268054  0.0356627392660378  0.2266823274678768
  0.1191713787835026  0.7018922808825915  0.1261919192660929
  0.7019897459955945  0.0355660692120164  0.2266948498734490
  0.7848118431947728  0.1192410393141118  0.3271919123608342
  0.5348510748263781  0.8692709612147907  0.3271286247696444
  0.7865837858725415  0.1180800998059651  0.0228917900079967
  0.5365648006901937  0.8681413879984750  0.0228863453449469
  0.2019574767503644  0.5355886450185400  0.2266739879429575
  0.9519853731323682  0.2856044317586519  0.2266857211126541
  0.8691988036525299  0.9518643524740509  0.1262168986621287
  0.7019991481835547  0.2855107852142713  0.2266733652634333
  0.4520181896449779  0.2855783290092974  0.2266709170689945
 
  0.00000000E+00  0.00000000E+00  0.00000000E+00
  0.00000000E+00  0.00000000E+00  0.00000000E+00
  0.00000000E+00  0.00000000E+00  0.00000000E+00
  0.00000000E+00  0.00000000E+00  0.00000000E+00
  0.00000000E+00  0.00000000E+00  0.00000000E+00
  0.00000000E+00  0.00000000E+00  0.00000000E+00
  0.00000000E+00  0.00000000E+00  0.00000000E+00
  0.00000000E+00  0.00000000E+00  0.00000000E+00
  0.00000000E+00  0.00000000E+00  0.00000000E+00
  0.00000000E+00  0.00000000E+00  0.00000000E+00
  0.00000000E+00  0.00000000E+00  0.00000000E+00
  0.00000000E+00  0.00000000E+00  0.00000000E+00
  0.00000000E+00  0.00000000E+00  0.00000000E+00
  0.00000000E+00  0.00000000E+00  0.00000000E+00
  0.00000000E+00  0.00000000E+00  0.00000000E+00
  0.00000000E+00  0.00000000E+00  0.00000000E+00
  0.00000000E+00  0.00000000E+00  0.00000000E+00
  0.00000000E+00  0.00000000E+00  0.00000000E+00
  0.00000000E+00  0.00000000E+00  0.00000000E+00
  0.00000000E+00  0.00000000E+00  0.00000000E+00
  0.00000000E+00  0.00000000E+00  0.00000000E+00
  0.00000000E+00  0.00000000E+00  0.00000000E+00
  0.00000000E+00  0.00000000E+00  0.00000000E+00
  0.00000000E+00  0.00000000E+00  0.00000000E+00
  0.00000000E+00  0.00000000E+00  0.00000000E+00
  0.00000000E+00  0.00000000E+00  0.00000000E+00
  0.00000000E+00  0.00000000E+00  0.00000000E+00
  0.00000000E+00  0.00000000E+00  0.00000000E+00
  0.00000000E+00  0.00000000E+00  0.00000000E+00
  0.00000000E+00  0.00000000E+00  0.00000000E+00
  0.00000000E+00  0.00000000E+00  0.00000000E+00
  0.00000000E+00  0.00000000E+00  0.00000000E+00
  0.00000000E+00  0.00000000E+00  0.00000000E+00
  0.00000000E+00  0.00000000E+00  0.00000000E+00
  0.00000000E+00  0.00000000E+00  0.00000000E+00
  0.00000000E+00  0.00000000E+00  0.00000000E+00
  0.00000000E+00  0.00000000E+00  0.00000000E+00
  0.00000000E+00  0.00000000E+00  0.00000000E+00
  0.00000000E+00  0.00000000E+00  0.00000000E+00
  0.00000000E+00  0.00000000E+00  0.00000000E+00
  0.00000000E+00  0.00000000E+00  0.00000000E+00
  0.00000000E+00  0.00000000E+00  0.00000000E+00
  0.00000000E+00  0.00000000E+00  0.00000000E+00
  0.00000000E+00  0.00000000E+00  0.00000000E+00
  0.00000000E+00  0.00000000E+00  0.00000000E+00
  0.00000000E+00  0.00000000E+00  0.00000000E+00
  0.00000000E+00  0.00000000E+00  0.00000000E+00
  0.00000000E+00  0.00000000E+00  0.00000000E+00
  0.00000000E+00  0.00000000E+00  0.00000000E+00
  0.00000000E+00  0.00000000E+00  0.00000000E+00
  0.00000000E+00  0.00000000E+00  0.00000000E+00
  0.00000000E+00  0.00000000E+00  0.00000000E+00
  0.00000000E+00  0.00000000E+00  0.00000000E+00
  0.00000000E+00  0.00000000E+00  0.00000000E+00
  0.00000000E+00  0.00000000E+00  0.00000000E+00
  0.00000000E+00  0.00000000E+00  0.00000000E+00
  0.00000000E+00  0.00000000E+00  0.00000000E+00
  0.00000000E+00  0.00000000E+00  0.00000000E+00
  0.00000000E+00  0.00000000E+00  0.00000000E+00
  0.00000000E+00  0.00000000E+00  0.00000000E+00
  0.00000000E+00  0.00000000E+00  0.00000000E+00
  0.00000000E+00  0.00000000E+00  0.00000000E+00
  0.00000000E+00  0.00000000E+00  0.00000000E+00
  0.00000000E+00  0.00000000E+00  0.00000000E+00
  0.00000000E+00  0.00000000E+00  0.00000000E+00
  0.00000000E+00  0.00000000E+00  0.00000000E+00
  0.00000000E+00  0.00000000E+00  0.00000000E+00
  0.00000000E+00  0.00000000E+00  0.00000000E+00
  0.00000000E+00  0.00000000E+00  0.00000000E+00
  0.00000000E+00  0.00000000E+00  0.00000000E+00
  0.00000000E+00  0.00000000E+00  0.00000000E+00
  0.00000000E+00  0.00000000E+00  0.00000000E+00
  0.00000000E+00  0.00000000E+00  0.00000000E+00
  0.00000000E+00  0.00000000E+00  0.00000000E+00
  0.00000000E+00  0.00000000E+00  0.00000000E+00
  0.00000000E+00  0.00000000E+00  0.00000000E+00
  0.00000000E+00  0.00000000E+00  0.00000000E+00
  0.00000000E+00  0.00000000E+00  0.00000000E+00
  0.00000000E+00  0.00000000E+00  0.00000000E+00
  0.00000000E+00  0.00000000E+00  0.00000000E+00
