10.56                                   
   1.00000000000000     
    10.5600004195999997    0.0000000000000000    0.0000000000000000
     5.2800002097999998    9.1452286273999999    0.0000000000000000
     0.0000000000000000    0.0000000000000000   22.0000000000000000
   Pt   Fe   Co   Cu   Ni
    32    13    10    13    12
Direct
  0.7875608587149160  0.8784977886035995  0.3174090599544179
  0.0431801171934639  0.8821527907579262  0.3158284699684447
  0.2796610906343187  0.3802776135755391  0.3199759619465027
  0.8748817618740469  0.9611483114427148  0.4238146347085171
  0.1225303164498324  0.4615325814761040  0.4283060825493089
  0.1254067520590517  0.9608984249968474  0.4216772429470310
  0.8746066557492406  0.4597077370458830  0.4268054814674720
  0.3749966197522535  0.9594927331388824  0.4206164914915258
  0.8746081724330583  0.2108799196355409  0.4211297736298978
  0.1256692676574241  0.2104811887640957  0.4229939495821053
  0.6245929262962853  0.9604485928703754  0.4233681197920854
  0.8745845442773905  0.7101880862518714  0.4261866046646385
  0.3745533485426272  0.2090208409061427  0.4250699672136977
  0.3758738786940646  0.7113902593695446  0.4237527535794285
  0.6258253913708376  0.4607369877201318  0.4228258366328968
  0.1246672179112613  0.7106554514698298  0.4261272724573323
  0.6254982451100509  0.2102366686509488  0.4222204244947796
  0.5478217989295296  0.3759734347519651  0.3173450115048700
  0.5347422390716954  0.1243666611834564  0.3149812657797809
  0.5453404941332947  0.1240624373510310  0.0400597239432821
  0.1206040715814271  0.4609966598033090  0.1276410319608448
  0.0426601111337038  0.1369493419491894  0.3142532053987896
  0.0404656514271128  0.1312966540336457  0.0330235970124260
  0.1295846305128408  0.9588723007225075  0.1321108645946715
  0.3746467903450912  0.4609034066611567  0.4265067819766585
  0.4551655081382073  0.5454123003849205  0.2185184215538701
  0.6231257380997772  0.7108281322466745  0.4235958581384955
  0.9568474490704532  0.7893131329676119  0.2208450576397168
  0.7952582190725306  0.6217804185556201  0.3188600369545685
  0.2918739046066098  0.6310252512167046  0.3180190263413932
  0.2020992959628799  0.2809609610699204  0.2255508652752440
  0.7069001399011907  0.5488932326710855  0.2205377298707996
  0.0410628200258694  0.6304197762965891  0.3256074746177024
  0.7956043082819115  0.8621767569630310  0.0420888734033627
  0.0555137176978295  0.8668995054970672  0.0379496278669655
  0.0463081570605020  0.6291025464897104  0.0365083349071744
  0.6256998175975214  0.2221001080541014  0.1291095823615408
  0.3816460840200542  0.9551457387492220  0.1301408949738136
  0.0359609092163974  0.3829946807221351  0.3253625957826968
  0.0301063052202009  0.3829682361418986  0.0371513986730813
  0.8710242223160538  0.2156469394793689  0.1283932516873580
  0.9547959305411913  0.5446422865322142  0.2233042459158573
  0.2955204768989406  0.1167500239218835  0.3219984562096759
  0.5415026075056150  0.6288941609042519  0.3224402151599235
  0.2932757067296684  0.1206434293458656  0.0397734497242824
  0.5474472708676489  0.6261831980254121  0.0436292499509314
  0.2957550583794382  0.3797230724425805  0.0386993989654228
  0.6247761748627951  0.9504161927431433  0.1324648330502740
  0.7066219075616769  0.7943207582420851  0.2199139004043632
  0.8659278539108639  0.7060347841853281  0.1286613455363963
  0.6258321384661649  0.4606913402360721  0.1267640963239653
  0.2981479315635472  0.8762891748951241  0.3180927129556524
  0.3043199204572954  0.8693396186034674  0.0405931248536946
  0.6269672100431386  0.7143555010138540  0.1282224156216691
  0.2238671732010409  0.0291222973533322  0.2273289178063842
  0.5424182848452374  0.3807749883435611  0.0346983702637796
  0.3772356409566365  0.2055253923873617  0.1327761086895588
  0.1360171552889951  0.7053931711062461  0.1315875601146645
  0.7051940120452094  0.0502623049241040  0.2205169208788408
  0.7928055322316696  0.1298148385850572  0.3176084365442435
  0.5385598363440374  0.8729845214795326  0.3171301900788668
  0.7948782952497344  0.1232481975946331  0.0346307836797416
  0.5443968563568397  0.8715496480695559  0.0362696932796622
  0.2078793913340011  0.5420944546408758  0.2239102971954352
  0.9512407435699837  0.2966948834948747  0.2213147989519343
  0.8708763107857996  0.9641699679412766  0.1289977119483743
  0.7142597254608537  0.2896371853713288  0.2234549453869979
  0.4568115730667239  0.2917506478340111  0.2209630666371364
  0.8751505511399598  0.4571617702832829  0.1274733920340324
  0.1258255531760684  0.2086901665586460  0.1287585454943853
  0.7911593131427210  0.6233938285362275  0.0400426175052137
  0.2977201419735698  0.6259079964544689  0.0421557377497615
  0.3848696628210256  0.7121213251752777  0.1288388429467551
  0.3813262431903452  0.4518360352542360  0.1264382125796431
  0.7930106322246745  0.3794841692346148  0.3209108131440543
  0.7901749190462987  0.3778444926359388  0.0391578253118264
  0.9548170177341408  0.0529120526042791  0.2215636967409564
  0.4581699968090151  0.7965692454949869  0.2245865457081809
  0.2141547975221811  0.7981494993762477  0.2245322506230056
  0.4621216445524779  0.0305078045369053  0.2222176997353185
 
  0.00000000E+00  0.00000000E+00  0.00000000E+00
  0.00000000E+00  0.00000000E+00  0.00000000E+00
  0.00000000E+00  0.00000000E+00  0.00000000E+00
  0.00000000E+00  0.00000000E+00  0.00000000E+00
  0.00000000E+00  0.00000000E+00  0.00000000E+00
  0.00000000E+00  0.00000000E+00  0.00000000E+00
  0.00000000E+00  0.00000000E+00  0.00000000E+00
  0.00000000E+00  0.00000000E+00  0.00000000E+00
  0.00000000E+00  0.00000000E+00  0.00000000E+00
  0.00000000E+00  0.00000000E+00  0.00000000E+00
  0.00000000E+00  0.00000000E+00  0.00000000E+00
  0.00000000E+00  0.00000000E+00  0.00000000E+00
  0.00000000E+00  0.00000000E+00  0.00000000E+00
  0.00000000E+00  0.00000000E+00  0.00000000E+00
  0.00000000E+00  0.00000000E+00  0.00000000E+00
  0.00000000E+00  0.00000000E+00  0.00000000E+00
  0.00000000E+00  0.00000000E+00  0.00000000E+00
  0.00000000E+00  0.00000000E+00  0.00000000E+00
  0.00000000E+00  0.00000000E+00  0.00000000E+00
  0.00000000E+00  0.00000000E+00  0.00000000E+00
  0.00000000E+00  0.00000000E+00  0.00000000E+00
  0.00000000E+00  0.00000000E+00  0.00000000E+00
  0.00000000E+00  0.00000000E+00  0.00000000E+00
  0.00000000E+00  0.00000000E+00  0.00000000E+00
  0.00000000E+00  0.00000000E+00  0.00000000E+00
  0.00000000E+00  0.00000000E+00  0.00000000E+00
  0.00000000E+00  0.00000000E+00  0.00000000E+00
  0.00000000E+00  0.00000000E+00  0.00000000E+00
  0.00000000E+00  0.00000000E+00  0.00000000E+00
  0.00000000E+00  0.00000000E+00  0.00000000E+00
  0.00000000E+00  0.00000000E+00  0.00000000E+00
  0.00000000E+00  0.00000000E+00  0.00000000E+00
  0.00000000E+00  0.00000000E+00  0.00000000E+00
  0.00000000E+00  0.00000000E+00  0.00000000E+00
  0.00000000E+00  0.00000000E+00  0.00000000E+00
  0.00000000E+00  0.00000000E+00  0.00000000E+00
  0.00000000E+00  0.00000000E+00  0.00000000E+00
  0.00000000E+00  0.00000000E+00  0.00000000E+00
  0.00000000E+00  0.00000000E+00  0.00000000E+00
  0.00000000E+00  0.00000000E+00  0.00000000E+00
  0.00000000E+00  0.00000000E+00  0.00000000E+00
  0.00000000E+00  0.00000000E+00  0.00000000E+00
  0.00000000E+00  0.00000000E+00  0.00000000E+00
  0.00000000E+00  0.00000000E+00  0.00000000E+00
  0.00000000E+00  0.00000000E+00  0.00000000E+00
  0.00000000E+00  0.00000000E+00  0.00000000E+00
  0.00000000E+00  0.00000000E+00  0.00000000E+00
  0.00000000E+00  0.00000000E+00  0.00000000E+00
  0.00000000E+00  0.00000000E+00  0.00000000E+00
  0.00000000E+00  0.00000000E+00  0.00000000E+00
  0.00000000E+00  0.00000000E+00  0.00000000E+00
  0.00000000E+00  0.00000000E+00  0.00000000E+00
  0.00000000E+00  0.00000000E+00  0.00000000E+00
  0.00000000E+00  0.00000000E+00  0.00000000E+00
  0.00000000E+00  0.00000000E+00  0.00000000E+00
  0.00000000E+00  0.00000000E+00  0.00000000E+00
  0.00000000E+00  0.00000000E+00  0.00000000E+00
  0.00000000E+00  0.00000000E+00  0.00000000E+00
  0.00000000E+00  0.00000000E+00  0.00000000E+00
  0.00000000E+00  0.00000000E+00  0.00000000E+00
  0.00000000E+00  0.00000000E+00  0.00000000E+00
  0.00000000E+00  0.00000000E+00  0.00000000E+00
  0.00000000E+00  0.00000000E+00  0.00000000E+00
  0.00000000E+00  0.00000000E+00  0.00000000E+00
  0.00000000E+00  0.00000000E+00  0.00000000E+00
  0.00000000E+00  0.00000000E+00  0.00000000E+00
  0.00000000E+00  0.00000000E+00  0.00000000E+00
  0.00000000E+00  0.00000000E+00  0.00000000E+00
  0.00000000E+00  0.00000000E+00  0.00000000E+00
  0.00000000E+00  0.00000000E+00  0.00000000E+00
  0.00000000E+00  0.00000000E+00  0.00000000E+00
  0.00000000E+00  0.00000000E+00  0.00000000E+00
  0.00000000E+00  0.00000000E+00  0.00000000E+00
  0.00000000E+00  0.00000000E+00  0.00000000E+00
  0.00000000E+00  0.00000000E+00  0.00000000E+00
  0.00000000E+00  0.00000000E+00  0.00000000E+00
  0.00000000E+00  0.00000000E+00  0.00000000E+00
  0.00000000E+00  0.00000000E+00  0.00000000E+00
  0.00000000E+00  0.00000000E+00  0.00000000E+00
  0.00000000E+00  0.00000000E+00  0.00000000E+00
