Cu   Pt   H                             
   1.00000000000000     
    10.5600004195999997    0.0000000000000000    0.0000000000000000
     5.2800002097999998    9.1452286273999999    0.0000000000000000
     0.0000000000000000    0.0000000000000000   22.0000000000000000
   Cu   Pt   H 
    64    16     2
Selective dynamics
Direct
  0.7849649860774816  0.8689344030204224  0.3141939289133232   T   T   T
  0.0352221186409457  0.8691532167907019  0.3141845413046201   T   T   T
  0.0352332704994729  0.6192156319994075  0.3141957303564792   T   T   T
  0.7862489977741944  0.8683580306463838  0.0449029301409070   F   F   F
  0.0363259342032549  0.8683109594885678  0.0449037755136388   F   F   F
  0.0362926956164600  0.6183453800441185  0.0449040668727250   F   F   F
  0.6190059373410435  0.2020352778895287  0.1352781702363615   F   F   F
  0.3690287182127392  0.9520179664196391  0.1352793628454521   F   F   F
  0.0348990874858068  0.3695361022244870  0.3142855894678341   T   T   T
  0.0363223169521234  0.3683400816035913  0.0449042535590891   F   F   F
  0.8690354394784165  0.2020170446548164  0.1352869309954556   F   F   F
  0.9520821603625551  0.5355663227652607  0.2248180844346084   T   T   T
  0.2855084055855926  0.1188648571987703  0.3142784596944977   T   T   T
  0.5348895654684745  0.6183001645087919  0.3177909550365604   T   T   T
  0.2853556843393980  0.3693686054552107  0.3145891171943622   T   T   T
  0.2862743719031045  0.1183406332300407  0.0449050022409097   F   F   F
  0.5363161573872759  0.6183452978263801  0.0448859087045435   F   F   F
  0.2863548261650166  0.3683290234218717  0.0448970020954533   F   F   F
  0.6190115951470077  0.9519934922693309  0.1352729054090887   F   F   F
  0.7018991212511085  0.7853123539744108  0.2249356736655066   T   T   T
  0.8690562341340424  0.7019773347563785  0.1352801621909094   F   F   F
  0.6190154306749704  0.4520216268748740  0.1352790409500031   F   F   F
  0.2872994952894590  0.8657126466831176  0.3159845867980506   T   T   T
  0.2863313801676881  0.8683468335616311  0.0448881439999980   F   F   F
  0.6190297104958304  0.7020185649120592  0.1352794445545484   F   F   F
  0.2025366861711118  0.0344745884795204  0.2252620549858889   T   T   T
  0.5353794402660329  0.3709232296371461  0.3165293377342874   T   T   T
  0.5362909971988969  0.3683687437629146  0.0448882480863659   F   F   F
  0.5353597022477913  0.1190973938876647  0.3142019305008796   T   T   T
  0.5363149216246015  0.1183187474021210  0.0448927739090905   F   F   F
  0.8690821575080889  0.4519764673149709  0.1352776201363639   F   F   F
  0.1190566022182153  0.4520153678952070  0.1352898458409086   F   F   F
  0.0348504998496016  0.1188444424280589  0.3142715980511797   T   T   T
  0.0362816687696892  0.1183447565605249  0.0449075346136354   F   F   F
  0.1190601259472075  0.9519896514796216  0.1352788457909071   F   F   F
  0.4524610771770609  0.5357289726199306  0.2260710131670557   T   T   T
  0.3690244471336612  0.2020149772051383  0.1352856928499975   F   F   F
  0.1190303050251416  0.2020411246214309  0.1352914691636329   F   F   F
  0.9522511793147042  0.7854667118511108  0.2247822733459199   T   T   T
  0.7850358566385125  0.6188593235892343  0.3146734091644199   T   T   T
  0.2867884036556159  0.6190907767867564  0.3162580154546575   T   T   T
  0.7862585535986497  0.6183514669231087  0.0448983113227257   F   F   F
  0.2863148512113511  0.6183444775079039  0.0448935090136331   F   F   F
  0.3690604108637601  0.7020085334733963  0.1352746690909115   F   F   F
  0.3690289842654053  0.4520183087839627  0.1352848660681829   F   F   F
  0.2019956012883841  0.2854465440681854  0.2248877537751112   T   T   T
  0.7810279531902841  0.3717159298396274  0.3163203521255116   T   T   T
  0.7862455880820818  0.3683649368487991  0.0448978039272703   F   F   F
  0.9521766523962003  0.0356394746886192  0.2247228815586017   T   T   T
  0.4521646533461012  0.7850190416360877  0.2256117819539724   T   T   T
  0.7016389720976347  0.5355021688807557  0.2256431031017181   T   T   T
  0.2028059924952231  0.7852040695278178  0.2254072590640258   T   T   T
  0.4521191176064483  0.0355498783066635  0.2248010810316548   T   T   T
  0.1190753377591065  0.7019761661032575  0.1352883550727242   F   F   F
  0.7020283467223511  0.0356999736312032  0.2247660164972604   T   T   T
  0.7851448323652558  0.1192556812729142  0.3141902739524676   T   T   T
  0.5349536536815004  0.8690193033868185  0.3146503772045237   T   T   T
  0.7863001972648362  0.1183328961790693  0.0449101627227293   F   F   F
  0.5362660313703174  0.8683264854426795  0.0448757432500031   F   F   F
  0.2027666111549879  0.5357921679623840  0.2252298135433819   T   T   T
  0.9508593888100960  0.2860643740182073  0.2253454731597206   T   T   T
  0.8690701809434032  0.9519851025282833  0.1352848888045486   F   F   F
  0.7017322722823833  0.2863434793780619  0.2254856970917647   T   T   T
  0.4524236865928994  0.2862305398662158  0.2252776619678708   T   T   T
  0.8680567233760131  0.9536564037986385  0.4127552098564228   T   T   T
  0.1179430426854191  0.4535873255195870  0.4133392674410633   T   T   T
  0.1175199711750211  0.9537436380695365  0.4132201529206462   T   T   T
  0.8707389942325388  0.4520304638545770  0.4134713044741628   T   T   T
  0.3667899021718503  0.9560684981034501  0.4134212402700798   T   T   T
  0.8681072551723527  0.2031284423969341  0.4131775377461551   T   T   T
  0.1177675283999859  0.2033694397939949  0.4126018201396697   T   T   T
  0.6175165662389894  0.9536025067964921  0.4132648744871869   T   T   T
  0.8684834920440112  0.7026903208075637  0.4131798983898714   T   T   T
  0.3683470754425760  0.2031461733810948  0.4132271530463299   T   T   T
  0.3632534720822783  0.7081964786346585  0.4224905011269641   T   T   T
  0.6217974733795678  0.4497836118475540  0.4249659370164525   T   T   T
  0.1151568200312066  0.7046004064788651  0.4129772948012804   T   T   T
  0.6193427556379982  0.2005429989665816  0.4130176837282215   T   T   T
  0.3656313592957949  0.4508544570798463  0.4157955294266905   T   T   T
  0.6207111909241717  0.7059681453077205  0.4151043155613609   T   T   T
  0.4532379895224770  0.5398705687481967  0.4722971296484493   T   T   T
  0.5314729039155455  0.6162505843900802  0.4725928881965052   T   T   T
 
  0.00000000E+00  0.00000000E+00  0.00000000E+00
  0.00000000E+00  0.00000000E+00  0.00000000E+00
  0.00000000E+00  0.00000000E+00  0.00000000E+00
  0.00000000E+00  0.00000000E+00  0.00000000E+00
  0.00000000E+00  0.00000000E+00  0.00000000E+00
  0.00000000E+00  0.00000000E+00  0.00000000E+00
  0.00000000E+00  0.00000000E+00  0.00000000E+00
  0.00000000E+00  0.00000000E+00  0.00000000E+00
  0.00000000E+00  0.00000000E+00  0.00000000E+00
  0.00000000E+00  0.00000000E+00  0.00000000E+00
  0.00000000E+00  0.00000000E+00  0.00000000E+00
  0.00000000E+00  0.00000000E+00  0.00000000E+00
  0.00000000E+00  0.00000000E+00  0.00000000E+00
  0.00000000E+00  0.00000000E+00  0.00000000E+00
  0.00000000E+00  0.00000000E+00  0.00000000E+00
  0.00000000E+00  0.00000000E+00  0.00000000E+00
  0.00000000E+00  0.00000000E+00  0.00000000E+00
  0.00000000E+00  0.00000000E+00  0.00000000E+00
  0.00000000E+00  0.00000000E+00  0.00000000E+00
  0.00000000E+00  0.00000000E+00  0.00000000E+00
  0.00000000E+00  0.00000000E+00  0.00000000E+00
  0.00000000E+00  0.00000000E+00  0.00000000E+00
  0.00000000E+00  0.00000000E+00  0.00000000E+00
  0.00000000E+00  0.00000000E+00  0.00000000E+00
  0.00000000E+00  0.00000000E+00  0.00000000E+00
  0.00000000E+00  0.00000000E+00  0.00000000E+00
  0.00000000E+00  0.00000000E+00  0.00000000E+00
  0.00000000E+00  0.00000000E+00  0.00000000E+00
  0.00000000E+00  0.00000000E+00  0.00000000E+00
  0.00000000E+00  0.00000000E+00  0.00000000E+00
  0.00000000E+00  0.00000000E+00  0.00000000E+00
  0.00000000E+00  0.00000000E+00  0.00000000E+00
  0.00000000E+00  0.00000000E+00  0.00000000E+00
  0.00000000E+00  0.00000000E+00  0.00000000E+00
  0.00000000E+00  0.00000000E+00  0.00000000E+00
  0.00000000E+00  0.00000000E+00  0.00000000E+00
  0.00000000E+00  0.00000000E+00  0.00000000E+00
  0.00000000E+00  0.00000000E+00  0.00000000E+00
  0.00000000E+00  0.00000000E+00  0.00000000E+00
  0.00000000E+00  0.00000000E+00  0.00000000E+00
  0.00000000E+00  0.00000000E+00  0.00000000E+00
  0.00000000E+00  0.00000000E+00  0.00000000E+00
  0.00000000E+00  0.00000000E+00  0.00000000E+00
  0.00000000E+00  0.00000000E+00  0.00000000E+00
  0.00000000E+00  0.00000000E+00  0.00000000E+00
  0.00000000E+00  0.00000000E+00  0.00000000E+00
  0.00000000E+00  0.00000000E+00  0.00000000E+00
  0.00000000E+00  0.00000000E+00  0.00000000E+00
  0.00000000E+00  0.00000000E+00  0.00000000E+00
  0.00000000E+00  0.00000000E+00  0.00000000E+00
  0.00000000E+00  0.00000000E+00  0.00000000E+00
  0.00000000E+00  0.00000000E+00  0.00000000E+00
  0.00000000E+00  0.00000000E+00  0.00000000E+00
  0.00000000E+00  0.00000000E+00  0.00000000E+00
  0.00000000E+00  0.00000000E+00  0.00000000E+00
  0.00000000E+00  0.00000000E+00  0.00000000E+00
  0.00000000E+00  0.00000000E+00  0.00000000E+00
  0.00000000E+00  0.00000000E+00  0.00000000E+00
  0.00000000E+00  0.00000000E+00  0.00000000E+00
  0.00000000E+00  0.00000000E+00  0.00000000E+00
  0.00000000E+00  0.00000000E+00  0.00000000E+00
  0.00000000E+00  0.00000000E+00  0.00000000E+00
  0.00000000E+00  0.00000000E+00  0.00000000E+00
  0.00000000E+00  0.00000000E+00  0.00000000E+00
  0.00000000E+00  0.00000000E+00  0.00000000E+00
  0.00000000E+00  0.00000000E+00  0.00000000E+00
  0.00000000E+00  0.00000000E+00  0.00000000E+00
  0.00000000E+00  0.00000000E+00  0.00000000E+00
  0.00000000E+00  0.00000000E+00  0.00000000E+00
  0.00000000E+00  0.00000000E+00  0.00000000E+00
  0.00000000E+00  0.00000000E+00  0.00000000E+00
  0.00000000E+00  0.00000000E+00  0.00000000E+00
  0.00000000E+00  0.00000000E+00  0.00000000E+00
  0.00000000E+00  0.00000000E+00  0.00000000E+00
  0.00000000E+00  0.00000000E+00  0.00000000E+00
  0.00000000E+00  0.00000000E+00  0.00000000E+00
  0.00000000E+00  0.00000000E+00  0.00000000E+00
  0.00000000E+00  0.00000000E+00  0.00000000E+00
  0.00000000E+00  0.00000000E+00  0.00000000E+00
  0.00000000E+00  0.00000000E+00  0.00000000E+00
  0.00000000E+00  0.00000000E+00  0.00000000E+00
  0.00000000E+00  0.00000000E+00  0.00000000E+00
