Pt111                                   
   1.00000000000000     
    10.9600000059999996    0.0000000000000000    0.0000000000000000
     5.4800000300000002    9.4916384585000007    0.0000000000000000
     0.0000000000000000    0.0000000000000000   22.0000000000000000
   Pt
    80
Direct
  0.7846720643533871  0.8693407301764466  0.3298746003861623
  0.0347453703655063  0.8691775097546142  0.3299101934311892
  0.0345372513653928  0.6193599216580736  0.3300099633237039
  0.7871262532950993  0.8676518609765012  0.0175705019717043
  0.0365686021116076  0.8682827512176843  0.0176810409561980
  0.0371157800971531  0.6177982316085533  0.0178044133019526
  0.6193770254926463  0.2017362565953960  0.1233705105270317
  0.3693255820842154  0.9517875387196000  0.1233977878319976
  0.0346374262759923  0.3693135183140157  0.3299959799171219
  0.0368182396802936  0.3676614769710014  0.0178421158247986
  0.8693255546676610  0.2018245932566245  0.1233170256804215
  0.9519763162091905  0.5356560281016982  0.2267010946474599
  0.2846455314324174  0.1193548608495192  0.3299681530858933
  0.5345722652566920  0.6194393574790880  0.3299284214898748
  0.2846117063407689  0.3692950170805531  0.3300683588916016
  0.2872128547435366  0.1176959981425298  0.0177676359683474
  0.5367315615130011  0.6179303911550704  0.0177242445975665
  0.2867157965532243  0.3680652439488767  0.0178471869207542
  0.6193413903237541  0.9517678995664909  0.1233260428880527
  0.7019419975469390  0.7856726779655361  0.2265955430176376
  0.8692591142949340  0.7018352475060965  0.1234163191919748
  0.6193852725602653  0.4518040581937584  0.1233923820311063
  0.2846716399913376  0.8693340771451048  0.3299613264072363
  0.2869634377130268  0.8676794065313160  0.0177295031952127
  0.6193152036048772  0.7018195042497979  0.1233357968229853
  0.2019041052864097  0.0356901597768342  0.2266600922210031
  0.8676296829471326  0.9529226001562563  0.4355110605467942
  0.1174842938814535  0.4530875854412599  0.4358760557335941
  0.1171767162200084  0.9527857365179457  0.4356512645453492
  0.8677162795739264  0.4526886351305563  0.4356521470853423
  0.3669558667327948  0.9531039054600541  0.4357188015997693
  0.8673421470307332  0.2031522747721226  0.4356629410806789
  0.1174471767262801  0.2030453349878627  0.4357082711593634
  0.6175185017753648  0.9529972900436263  0.4355662039632122
  0.8669761258819122  0.7029531199570371  0.4356404026809884
  0.3675290447763260  0.2026142413423955  0.4357588899748492
  0.3676390518158001  0.7029795649289312  0.4357072539356110
  0.6172875402593192  0.4528502071603668  0.4356196287132690
  0.1174206470226622  0.7027091497055054  0.4357271947471517
  0.6172684023439174  0.2030866530455739  0.4355543523017928
  0.5344633471597220  0.3694394467682400  0.3299252277411568
  0.5373605491719999  0.3675441637709511  0.0177014946443208
  0.5346212374554327  0.1194271426958267  0.3299018748902327
  0.5368502505643775  0.1179870096343976  0.0176395756877668
  0.8692850783726982  0.4518704855217024  0.1234823188211962
  0.1193480072561641  0.4517884556468275  0.1235586076682011
  0.0346483937384647  0.1193344055519177  0.3299730612450489
  0.0370496372618163  0.1177162597261230  0.0176322235327433
  0.1193360579642686  0.9517973685252201  0.1234471498726961
  0.3671354381995187  0.4530517087023469  0.4358341533451338
  0.4519738427912756  0.5356381682718094  0.2266879717708932
  0.6173999818380054  0.7028936151874063  0.4356317429439045
  0.3693034247269935  0.2018564972970083  0.1235070294997840
  0.1193915680989406  0.2017082400689176  0.1234534575847448
  0.9519953729901260  0.7856147917736322  0.2266830916322249
  0.7845269985439458  0.6193503023441309  0.3298990781187499
  0.2845976342225569  0.6193937430401206  0.3300389195096187
  0.7868311899072324  0.6180357900083564  0.0176707095081241
  0.2869762919379966  0.6177635427729342  0.0177778366767996
  0.3692206563277125  0.7018148911307449  0.1234805236058278
  0.3694185980436018  0.4518351369035045  0.1234685466869152
  0.2018464343200534  0.2857228849521007  0.2267457828065460
  0.7845186742064243  0.3693813966315034  0.3299148163984782
  0.7870004818578593  0.3680513243254495  0.0176074950070060
  0.9519544222218883  0.0356589696867999  0.2266526276270042
  0.4519895395949192  0.7857407854905460  0.2266490217862724
  0.7019565841154503  0.5356520209173539  0.2266436737727915
  0.2019766783775054  0.7856751920421061  0.2267081047945823
  0.4519457651265100  0.0356447428232016  0.2266820477967784
  0.1193391691893879  0.7018779650484177  0.1234559250660467
  0.7019389945741210  0.0356241277613236  0.2266068004118580
  0.7845722494512302  0.1194696365887253  0.3298525740502640
  0.5346504553616498  0.8693603302680657  0.3299702227055761
  0.7868537854409183  0.1178772241209174  0.0175177445821149
  0.5370722511527148  0.8679527297397698  0.0175638524258375
  0.2019638408064282  0.5356460577288544  0.2267274154815553
  0.9519294988559892  0.2856059441513281  0.2266970435603213
  0.8691734336399364  0.9518856255149473  0.1233850648065768
  0.7019622946043569  0.2856039222743192  0.2266025493592494
  0.4519217803828610  0.2856794180018625  0.2267219859782941
 
  0.00000000E+00  0.00000000E+00  0.00000000E+00
  0.00000000E+00  0.00000000E+00  0.00000000E+00
  0.00000000E+00  0.00000000E+00  0.00000000E+00
  0.00000000E+00  0.00000000E+00  0.00000000E+00
  0.00000000E+00  0.00000000E+00  0.00000000E+00
  0.00000000E+00  0.00000000E+00  0.00000000E+00
  0.00000000E+00  0.00000000E+00  0.00000000E+00
  0.00000000E+00  0.00000000E+00  0.00000000E+00
  0.00000000E+00  0.00000000E+00  0.00000000E+00
  0.00000000E+00  0.00000000E+00  0.00000000E+00
  0.00000000E+00  0.00000000E+00  0.00000000E+00
  0.00000000E+00  0.00000000E+00  0.00000000E+00
  0.00000000E+00  0.00000000E+00  0.00000000E+00
  0.00000000E+00  0.00000000E+00  0.00000000E+00
  0.00000000E+00  0.00000000E+00  0.00000000E+00
  0.00000000E+00  0.00000000E+00  0.00000000E+00
  0.00000000E+00  0.00000000E+00  0.00000000E+00
  0.00000000E+00  0.00000000E+00  0.00000000E+00
  0.00000000E+00  0.00000000E+00  0.00000000E+00
  0.00000000E+00  0.00000000E+00  0.00000000E+00
  0.00000000E+00  0.00000000E+00  0.00000000E+00
  0.00000000E+00  0.00000000E+00  0.00000000E+00
  0.00000000E+00  0.00000000E+00  0.00000000E+00
  0.00000000E+00  0.00000000E+00  0.00000000E+00
  0.00000000E+00  0.00000000E+00  0.00000000E+00
  0.00000000E+00  0.00000000E+00  0.00000000E+00
  0.00000000E+00  0.00000000E+00  0.00000000E+00
  0.00000000E+00  0.00000000E+00  0.00000000E+00
  0.00000000E+00  0.00000000E+00  0.00000000E+00
  0.00000000E+00  0.00000000E+00  0.00000000E+00
  0.00000000E+00  0.00000000E+00  0.00000000E+00
  0.00000000E+00  0.00000000E+00  0.00000000E+00
  0.00000000E+00  0.00000000E+00  0.00000000E+00
  0.00000000E+00  0.00000000E+00  0.00000000E+00
  0.00000000E+00  0.00000000E+00  0.00000000E+00
  0.00000000E+00  0.00000000E+00  0.00000000E+00
  0.00000000E+00  0.00000000E+00  0.00000000E+00
  0.00000000E+00  0.00000000E+00  0.00000000E+00
  0.00000000E+00  0.00000000E+00  0.00000000E+00
  0.00000000E+00  0.00000000E+00  0.00000000E+00
  0.00000000E+00  0.00000000E+00  0.00000000E+00
  0.00000000E+00  0.00000000E+00  0.00000000E+00
  0.00000000E+00  0.00000000E+00  0.00000000E+00
  0.00000000E+00  0.00000000E+00  0.00000000E+00
  0.00000000E+00  0.00000000E+00  0.00000000E+00
  0.00000000E+00  0.00000000E+00  0.00000000E+00
  0.00000000E+00  0.00000000E+00  0.00000000E+00
  0.00000000E+00  0.00000000E+00  0.00000000E+00
  0.00000000E+00  0.00000000E+00  0.00000000E+00
  0.00000000E+00  0.00000000E+00  0.00000000E+00
  0.00000000E+00  0.00000000E+00  0.00000000E+00
  0.00000000E+00  0.00000000E+00  0.00000000E+00
  0.00000000E+00  0.00000000E+00  0.00000000E+00
  0.00000000E+00  0.00000000E+00  0.00000000E+00
  0.00000000E+00  0.00000000E+00  0.00000000E+00
  0.00000000E+00  0.00000000E+00  0.00000000E+00
  0.00000000E+00  0.00000000E+00  0.00000000E+00
  0.00000000E+00  0.00000000E+00  0.00000000E+00
  0.00000000E+00  0.00000000E+00  0.00000000E+00
  0.00000000E+00  0.00000000E+00  0.00000000E+00
  0.00000000E+00  0.00000000E+00  0.00000000E+00
  0.00000000E+00  0.00000000E+00  0.00000000E+00
  0.00000000E+00  0.00000000E+00  0.00000000E+00
  0.00000000E+00  0.00000000E+00  0.00000000E+00
  0.00000000E+00  0.00000000E+00  0.00000000E+00
  0.00000000E+00  0.00000000E+00  0.00000000E+00
  0.00000000E+00  0.00000000E+00  0.00000000E+00
  0.00000000E+00  0.00000000E+00  0.00000000E+00
  0.00000000E+00  0.00000000E+00  0.00000000E+00
  0.00000000E+00  0.00000000E+00  0.00000000E+00
  0.00000000E+00  0.00000000E+00  0.00000000E+00
  0.00000000E+00  0.00000000E+00  0.00000000E+00
  0.00000000E+00  0.00000000E+00  0.00000000E+00
  0.00000000E+00  0.00000000E+00  0.00000000E+00
  0.00000000E+00  0.00000000E+00  0.00000000E+00
  0.00000000E+00  0.00000000E+00  0.00000000E+00
  0.00000000E+00  0.00000000E+00  0.00000000E+00
  0.00000000E+00  0.00000000E+00  0.00000000E+00
  0.00000000E+00  0.00000000E+00  0.00000000E+00
  0.00000000E+00  0.00000000E+00  0.00000000E+00
