Pt111\(1\1\1)\(2)                       
   1.00000000000000     
    10.5600004195999997    0.0000000000000000    0.0000000000000000
    -5.2800002097999998    9.1452286273999999    0.0000000000000000
     0.0000000000000000    0.0000000000000000   20.0000000000000000
   Pt   H 
    64     1
Selective dynamics
Direct
  0.9999984446215961  0.0000015553793773  0.0557922949150012   F   F   F
  0.3333124378725145  0.1689122596314121  0.1793950871750027   F   F   F
  0.1681847092974422  0.3340483283651423  0.3104245329249977   F   F   F
  0.0005284435728328  0.0007592008885595  0.4152814862699969   F   F   F
  0.9999984416169312  0.2500015483757210  0.0557922949150012   F   F   F
  0.3333403655434140  0.4166720983314960  0.1929797557450001   F   F   F
  0.1686729103509776  0.0872997991223485  0.2984330405249978   F   F   F
  0.9997945669706922  0.2498227375590005  0.4216314658450031   F   F   F
  0.2499984416169312  0.2500015483757210  0.0557922949150012   F   F   F
  0.0856168522110323  0.4166842350100310  0.1793634026549995   F   F   F
  0.4170356623579252  0.0845510689676274  0.2957955892799973   F   F   F
  0.2479717395731242  0.2458945557864425  0.4387812178100035   F   F   F
  0.2499984446215961  0.0000015553793773  0.0557922949150012   F   F   F
  0.0856089096604009  0.1689192015901710  0.1793894184500004   F   F   F
  0.4158999119066351  0.3340475698603171  0.3104242232899992   F   F   F
  0.2502760926693597  0.0007582448381029  0.4152700290949980   F   F   F
  0.4999984446215961  0.0000015553793773  0.0557922949150012   F   F   F
  0.8343074541786848  0.1671411429803200  0.1766467133699976   F   F   F
  0.6653659187801537  0.3328904216980177  0.2957800491150024   F   F   F
  0.4999698374133104  0.9999240250923975  0.4171362594199977   F   F   F
  0.4999984296188273  0.2500015483757210  0.0557922949150012   F   F   F
  0.8331723206605091  0.4163502873719338  0.1751441132750031   F   F   F
  0.6666370535955366  0.0832437415199365  0.2963917926250019   F   F   F
  0.5000775647186302  0.2498245446871366  0.4216210881499975   F   F   F
  0.7499984076207227  0.2500015483757210  0.0557922949150012   F   F   F
  0.5810606128451212  0.4166766908027952  0.1793669507599986   F   F   F
  0.9175560729970016  0.0845520755143596  0.2958057059399977   F   F   F
  0.7500016749282352  0.2499596545078262  0.4171397811499986   F   F   F
  0.7499984216197078  0.0000015553793773  0.0557922949150012   F   F   F
  0.5828272034341566  0.1671385423017639  0.1766495521150020   F   F   F
  0.9175568092616402  0.3329022512437234  0.2957820167600005   F   F   F
  0.7499876744078335  0.9999202575868011  0.4171552586299967   F   F   F
  0.9999984376190483  0.5000015423780582  0.0557922949150012   F   F   F
  0.3333212599276933  0.6643951893007412  0.1793806012249988   F   F   F
  0.1676420712302829  0.8337713148312815  0.2922886595000023   F   F   F
  0.0005283742406306  0.4996340650150657  0.4152627841150007   F   F   F
  0.9999984326223199  0.7500015093827130  0.0557922949150012   F   F   F
  0.3336517906346828  0.9168249341387735  0.1751507046599983   F   F   F
  0.1686784918056858  0.5812756234079330  0.2984121403749995   F   F   F
  0.0000001602324531  0.7499591495669264  0.4104274759099980   F   F   F
  0.2499984326223199  0.7500015093827130  0.0557922949150012   F   F   F
  0.0840225406479433  0.9180395097336032  0.1747533804299977   F   F   F
  0.4158966517839531  0.5817527190145881  0.3104457661199973   F   F   F
  0.2502806403404705  0.7493828731046577  0.4152840597700020   F   F   F
  0.2499984376190483  0.5000015423780582  0.0557922949150012   F   F   F
  0.0840202836921691  0.6659812581669229  0.1747517498699978   F   F   F
  0.4170223383267952  0.8323572457547357  0.2958098371249989   F   F   F
  0.2479591697961112  0.5019283892965944  0.4387821619399972   F   F   F
  0.4999984376190483  0.5000015423780582  0.0557922949150012   F   F   F
  0.8319636587659929  0.6659825924692626  0.1747561513549982   F   F   F
  0.6653517100662469  0.8323447778324251  0.2958261994750018   F   F   F
  0.5040242826996533  0.5019331036347197  0.4387896704299976   F   F   F
  0.4999984326223199  0.7500015093827130  0.0557922949150012   F   F   F
  0.8331703586130388  0.9168222699626227  0.1751552301250001   F   F   F
  0.6626271712561618  0.5812717111273926  0.2984178214950006   F   F   F
  0.5000938271189739  0.7501285830565791  0.4216647646399991   F   F   F
  0.7499984106242152  0.7500015093827130  0.0557922949150012   F   F   F
  0.5828307180804586  0.9156765556205428  0.1766709824400010   F   F   F
  0.9161661101019547  0.5823131792292884  0.2922904302999996   F   F   F
  0.7491599589111573  0.7493855335848920  0.4153046016350004   F   F   F
  0.7499983926190481  0.5000015423780582  0.0557922949150012   F   F   F
  0.5810686422883791  0.6643904024985972  0.1793878337900026   F   F   F
  0.9161687811222379  0.8337697077746853  0.2922973104000022   F   F   F
  0.7491513453147363  0.4996332191750810  0.4152591790399995   F   F   F
  0.3333457329374240  0.4166482586322501  0.4886091990949985   T   T   T
 
  0.00000000E+00  0.00000000E+00  0.00000000E+00
  0.00000000E+00  0.00000000E+00  0.00000000E+00
  0.00000000E+00  0.00000000E+00  0.00000000E+00
  0.00000000E+00  0.00000000E+00  0.00000000E+00
  0.00000000E+00  0.00000000E+00  0.00000000E+00
  0.00000000E+00  0.00000000E+00  0.00000000E+00
  0.00000000E+00  0.00000000E+00  0.00000000E+00
  0.00000000E+00  0.00000000E+00  0.00000000E+00
  0.00000000E+00  0.00000000E+00  0.00000000E+00
  0.00000000E+00  0.00000000E+00  0.00000000E+00
  0.00000000E+00  0.00000000E+00  0.00000000E+00
  0.00000000E+00  0.00000000E+00  0.00000000E+00
  0.00000000E+00  0.00000000E+00  0.00000000E+00
  0.00000000E+00  0.00000000E+00  0.00000000E+00
  0.00000000E+00  0.00000000E+00  0.00000000E+00
  0.00000000E+00  0.00000000E+00  0.00000000E+00
  0.00000000E+00  0.00000000E+00  0.00000000E+00
  0.00000000E+00  0.00000000E+00  0.00000000E+00
  0.00000000E+00  0.00000000E+00  0.00000000E+00
  0.00000000E+00  0.00000000E+00  0.00000000E+00
  0.00000000E+00  0.00000000E+00  0.00000000E+00
  0.00000000E+00  0.00000000E+00  0.00000000E+00
  0.00000000E+00  0.00000000E+00  0.00000000E+00
  0.00000000E+00  0.00000000E+00  0.00000000E+00
  0.00000000E+00  0.00000000E+00  0.00000000E+00
  0.00000000E+00  0.00000000E+00  0.00000000E+00
  0.00000000E+00  0.00000000E+00  0.00000000E+00
  0.00000000E+00  0.00000000E+00  0.00000000E+00
  0.00000000E+00  0.00000000E+00  0.00000000E+00
  0.00000000E+00  0.00000000E+00  0.00000000E+00
  0.00000000E+00  0.00000000E+00  0.00000000E+00
  0.00000000E+00  0.00000000E+00  0.00000000E+00
  0.00000000E+00  0.00000000E+00  0.00000000E+00
  0.00000000E+00  0.00000000E+00  0.00000000E+00
  0.00000000E+00  0.00000000E+00  0.00000000E+00
  0.00000000E+00  0.00000000E+00  0.00000000E+00
  0.00000000E+00  0.00000000E+00  0.00000000E+00
  0.00000000E+00  0.00000000E+00  0.00000000E+00
  0.00000000E+00  0.00000000E+00  0.00000000E+00
  0.00000000E+00  0.00000000E+00  0.00000000E+00
  0.00000000E+00  0.00000000E+00  0.00000000E+00
  0.00000000E+00  0.00000000E+00  0.00000000E+00
  0.00000000E+00  0.00000000E+00  0.00000000E+00
  0.00000000E+00  0.00000000E+00  0.00000000E+00
  0.00000000E+00  0.00000000E+00  0.00000000E+00
  0.00000000E+00  0.00000000E+00  0.00000000E+00
  0.00000000E+00  0.00000000E+00  0.00000000E+00
  0.00000000E+00  0.00000000E+00  0.00000000E+00
  0.00000000E+00  0.00000000E+00  0.00000000E+00
  0.00000000E+00  0.00000000E+00  0.00000000E+00
  0.00000000E+00  0.00000000E+00  0.00000000E+00
  0.00000000E+00  0.00000000E+00  0.00000000E+00
  0.00000000E+00  0.00000000E+00  0.00000000E+00
  0.00000000E+00  0.00000000E+00  0.00000000E+00
  0.00000000E+00  0.00000000E+00  0.00000000E+00
  0.00000000E+00  0.00000000E+00  0.00000000E+00
  0.00000000E+00  0.00000000E+00  0.00000000E+00
  0.00000000E+00  0.00000000E+00  0.00000000E+00
  0.00000000E+00  0.00000000E+00  0.00000000E+00
  0.00000000E+00  0.00000000E+00  0.00000000E+00
  0.00000000E+00  0.00000000E+00  0.00000000E+00
  0.00000000E+00  0.00000000E+00  0.00000000E+00
  0.00000000E+00  0.00000000E+00  0.00000000E+00
  0.00000000E+00  0.00000000E+00  0.00000000E+00
  0.00000000E+00  0.00000000E+00  0.00000000E+00
