Pt111\(1\1\1)\(2)                       
   1.00000000000000     
    10.5600004195999997    0.0000000000000000    0.0000000000000000
    -5.2800002097999998    9.1452286273999999    0.0000000000000000
     0.0000000000000000    0.0000000000000000   20.0000000000000000
   Pt   H 
    64     2
Selective dynamics
Direct
  0.9999984446215961  0.0000015553793773  0.0557922949150012   F   F   F
  0.3336777469801788  0.1691178660494259  0.1798737273350000   F   F   F
  0.1690270088060615  0.3334232516029374  0.3103074739300027   F   F   F
  0.0008101667873817  0.0015240363437456  0.4153864251699986   F   F   F
  0.9999984416169312  0.2500015483757210  0.0557922949150012   F   F   F
  0.3332144057210868  0.4167801169869279  0.1922947188949991   F   F   F
  0.1688891152129628  0.0871634930166465  0.2984468342500008   F   F   F
  0.9993669658796378  0.2497641240762931  0.4219788788349987   F   F   F
  0.2499984416169312  0.2500015483757210  0.0557922949150012   F   F   F
  0.0854602266689994  0.4166390104872946  0.1796813847750016   F   F   F
  0.4172322153733248  0.0850206920218923  0.2964760917549967   F   F   F
  0.2454370302538251  0.2459384947098329  0.4434862118799998   F   F   F
  0.2499984446215961  0.0000015553793773  0.0557922949150012   F   F   F
  0.0856211325782041  0.1690689509245829  0.1795620595700029   F   F   F
  0.4161778003470999  0.3337452116238353  0.3110280046450029   F   F   F
  0.2492248077321975  0.0008608998004078  0.4142168173599998   F   F   F
  0.4999984446215961  0.0000015553793773  0.0557922949150012   F   F   F
  0.8340882018290543  0.1670779035881154  0.1769154293450015   F   F   F
  0.6648998813285658  0.3326836820879961  0.2964725281049994   F   F   F
  0.5000044450260432  0.9995874765461110  0.4167527499599970   F   F   F
  0.4999984296188273  0.2500015483757210  0.0557922949150012   F   F   F
  0.8331301429450519  0.4162410508245813  0.1750403083750030   F   F   F
  0.6667648379221305  0.0831553201110324  0.2964229440599979   F   F   F
  0.5015408790509639  0.2483768711582002  0.4248304301399983   F   F   F
  0.7499984076207227  0.2500015483757210  0.0557922949150012   F   F   F
  0.5808680663282217  0.4163088454008843  0.1798671506800034   F   F   F
  0.9179103285414243  0.0844514399876246  0.2960400770399971   F   F   F
  0.7502975522857795  0.2498930503664951  0.4167304455950003   F   F   F
  0.7499984216197078  0.0000015553793773  0.0557922949150012   F   F   F
  0.5827091708647316  0.1672631981902555  0.1773488407100032   F   F   F
  0.9178162151004230  0.3324401297405686  0.2960149450499969   F   F   F
  0.7503180431532499  0.9995718658374173  0.4168818583049969   F   F   F
  0.9999984376190483  0.5000015423780582  0.0557922949150012   F   F   F
  0.3333549896851835  0.6645407136232322  0.1796970875800028   F   F   F
  0.1680088444851009  0.8335027863996771  0.2916535666300035   F   F   F
  0.9994788710230509  0.4998898904181601  0.4151544091750026   F   F   F
  0.9999984326223199  0.7500015093827130  0.0557922949150012   F   F   F
  0.3337458409246992  0.9168536914296723  0.1750460219800019   F   F   F
  0.1691010194730254  0.5808354611042859  0.2990036517850001   F   F   F
  0.9994704565616956  0.7504281103086115  0.4099106776000028   F   F   F
  0.2499984326223199  0.7500015093827130  0.0557922949150012   F   F   F
  0.0843140839796845  0.9184033213489897  0.1744386764099985   F   F   F
  0.4164971471256464  0.5808980191357236  0.3103189584150030   F   F   F
  0.2500158273157211  0.7504340425605207  0.4151890984899964   F   F   F
  0.2499984376190483  0.5000015423780582  0.0557922949150012   F   F   F
  0.0841687169592120  0.6658066128447473  0.1746248521100000   F   F   F
  0.4174860575858617  0.8321121075202100  0.2960400959199987   F   F   F
  0.2467049618072039  0.5031905518810760  0.4365106530850014   F   F   F
  0.4999984376190483  0.5000015423780582  0.0557922949150012   F   F   F
  0.8315769679893137  0.6656691911627703  0.1744409583950031   F   F   F
  0.6654796612521068  0.8320206707574940  0.2960570836199992   F   F   F
  0.5039557525462612  0.5044552459495577  0.4434615543449993   F   F   F
  0.4999984326223199  0.7500015093827130  0.0557922949150012   F   F   F
  0.8330759241964003  0.9169072825010360  0.1752196862249988   F   F   F
  0.6627598254112783  0.5810412786050492  0.2984523947650004   F   F   F
  0.5001465537786700  0.7505503494505206  0.4220037023549992   F   F   F
  0.7499984106242152  0.7500015093827130  0.0557922949150012   F   F   F
  0.5828991740148268  0.9158916613308676  0.1769221306949973   F   F   F
  0.9164169556022301  0.5819297619695476  0.2916490232300006   F   F   F
  0.7483582944761622  0.7490623233382792  0.4154051927650002   F   F   F
  0.7499983926190481  0.5000015423780582  0.0557922949150012   F   F   F
  0.5809130154669973  0.6643647638066028  0.1795708623150034   F   F   F
  0.9162497314305327  0.8336769352006428  0.2916920207649980   F   F   F
  0.7490253252122656  0.5006613591465481  0.4142219574549983   F   F   F
  0.3172878306221278  0.4328329490900202  0.4922465292349969   T   T   T
  0.4330236587321892  0.3161291946751418  0.4850224473899977   T   T   T
 
  0.00000000E+00  0.00000000E+00  0.00000000E+00
  0.00000000E+00  0.00000000E+00  0.00000000E+00
  0.00000000E+00  0.00000000E+00  0.00000000E+00
  0.00000000E+00  0.00000000E+00  0.00000000E+00
  0.00000000E+00  0.00000000E+00  0.00000000E+00
  0.00000000E+00  0.00000000E+00  0.00000000E+00
  0.00000000E+00  0.00000000E+00  0.00000000E+00
  0.00000000E+00  0.00000000E+00  0.00000000E+00
  0.00000000E+00  0.00000000E+00  0.00000000E+00
  0.00000000E+00  0.00000000E+00  0.00000000E+00
  0.00000000E+00  0.00000000E+00  0.00000000E+00
  0.00000000E+00  0.00000000E+00  0.00000000E+00
  0.00000000E+00  0.00000000E+00  0.00000000E+00
  0.00000000E+00  0.00000000E+00  0.00000000E+00
  0.00000000E+00  0.00000000E+00  0.00000000E+00
  0.00000000E+00  0.00000000E+00  0.00000000E+00
  0.00000000E+00  0.00000000E+00  0.00000000E+00
  0.00000000E+00  0.00000000E+00  0.00000000E+00
  0.00000000E+00  0.00000000E+00  0.00000000E+00
  0.00000000E+00  0.00000000E+00  0.00000000E+00
  0.00000000E+00  0.00000000E+00  0.00000000E+00
  0.00000000E+00  0.00000000E+00  0.00000000E+00
  0.00000000E+00  0.00000000E+00  0.00000000E+00
  0.00000000E+00  0.00000000E+00  0.00000000E+00
  0.00000000E+00  0.00000000E+00  0.00000000E+00
  0.00000000E+00  0.00000000E+00  0.00000000E+00
  0.00000000E+00  0.00000000E+00  0.00000000E+00
  0.00000000E+00  0.00000000E+00  0.00000000E+00
  0.00000000E+00  0.00000000E+00  0.00000000E+00
  0.00000000E+00  0.00000000E+00  0.00000000E+00
  0.00000000E+00  0.00000000E+00  0.00000000E+00
  0.00000000E+00  0.00000000E+00  0.00000000E+00
  0.00000000E+00  0.00000000E+00  0.00000000E+00
  0.00000000E+00  0.00000000E+00  0.00000000E+00
  0.00000000E+00  0.00000000E+00  0.00000000E+00
  0.00000000E+00  0.00000000E+00  0.00000000E+00
  0.00000000E+00  0.00000000E+00  0.00000000E+00
  0.00000000E+00  0.00000000E+00  0.00000000E+00
  0.00000000E+00  0.00000000E+00  0.00000000E+00
  0.00000000E+00  0.00000000E+00  0.00000000E+00
  0.00000000E+00  0.00000000E+00  0.00000000E+00
  0.00000000E+00  0.00000000E+00  0.00000000E+00
  0.00000000E+00  0.00000000E+00  0.00000000E+00
  0.00000000E+00  0.00000000E+00  0.00000000E+00
  0.00000000E+00  0.00000000E+00  0.00000000E+00
  0.00000000E+00  0.00000000E+00  0.00000000E+00
  0.00000000E+00  0.00000000E+00  0.00000000E+00
  0.00000000E+00  0.00000000E+00  0.00000000E+00
  0.00000000E+00  0.00000000E+00  0.00000000E+00
  0.00000000E+00  0.00000000E+00  0.00000000E+00
  0.00000000E+00  0.00000000E+00  0.00000000E+00
  0.00000000E+00  0.00000000E+00  0.00000000E+00
  0.00000000E+00  0.00000000E+00  0.00000000E+00
  0.00000000E+00  0.00000000E+00  0.00000000E+00
  0.00000000E+00  0.00000000E+00  0.00000000E+00
  0.00000000E+00  0.00000000E+00  0.00000000E+00
  0.00000000E+00  0.00000000E+00  0.00000000E+00
  0.00000000E+00  0.00000000E+00  0.00000000E+00
  0.00000000E+00  0.00000000E+00  0.00000000E+00
  0.00000000E+00  0.00000000E+00  0.00000000E+00
  0.00000000E+00  0.00000000E+00  0.00000000E+00
  0.00000000E+00  0.00000000E+00  0.00000000E+00
  0.00000000E+00  0.00000000E+00  0.00000000E+00
  0.00000000E+00  0.00000000E+00  0.00000000E+00
  0.00000000E+00  0.00000000E+00  0.00000000E+00
  0.00000000E+00  0.00000000E+00  0.00000000E+00
