Pt111\(1\1\1)\(2)                       
   1.00000000000000     
    10.5600004195999997    0.0000000000000000    0.0000000000000000
    -5.2800002097999998    9.1452286273999999    0.0000000000000000
     0.0000000000000000    0.0000000000000000   20.0000000000000000
   Pt
    64
Selective dynamics
Direct
  0.0009943861502787  0.0008077878363049  0.0483395351173283   T   T   T
  0.3330844283242543  0.1661533767859988  0.1842667765910089   T   T   T
  0.1668037795891456  0.3333462035408873  0.3146528757714537   T   T   T
  0.0003829739320368 -0.0005388543234719  0.4174769006499989   T   T   T
  0.0007805151261803  0.2504563020572026  0.0608790622589786   T   T   T
  0.3333478649910807  0.4166971734177633  0.1990954762780798   T   T   T
  0.1667162722832767  0.0833943362092682  0.3009046848407781   T   T   T
  0.0008762082287000  0.2503297387327277  0.4277974763908873   T   T   T
  0.2500242551451923  0.2500957524896512  0.0670098217736972   T   T   T
  0.0830756078514048  0.4169235220597499  0.1842316133222270   T   T   T
  0.4164116577728535  0.0837187493618452  0.2981642985473289   T   T   T
  0.2495505970109153  0.2490014997698755  0.4368381895423141   T   T   T
  0.2497878974863809  0.0007920941583454  0.0483318262253545   T   T   T
  0.0830834578947079  0.1661488861215083  0.1842781111682988   T   T   T
  0.4165945818658331  0.3333799797191370  0.3146542796094815   T   T   T
  0.2491294861729106 -0.0005477698933769  0.4174670319181102   T   T   T
  0.4989102376912344 -0.0004881101118326  0.0547042667215768   T   T   T
  0.8331768878248831  0.1665954509735139  0.1775259032972366   T   T   T
  0.6661960938189171  0.3334803833032854  0.2981408317513067   T   T   T
  0.4997526022169059 -0.0002256485921833  0.4163027985021425   T   T   T
  0.4996316144841410  0.2504590661969422  0.0608613622311552   T   T   T
  0.8335893318285498  0.4171616475339550  0.1709689027693408   T   T   T
  0.6666365368951452  0.0832676556004611  0.2945120446502156   T   T   T
  0.4995352046065535  0.2503359351565608  0.4277876677078168   T   T   T
  0.7505684096924968  0.2511692341771083  0.0546557854386176   T   T   T
  0.5838579181125680  0.4169168034783549  0.1842283971859546   T   T   T
  0.9173395042473234  0.0837135544583598  0.2981690504727806   T   T   T
  0.7500804549633564  0.2500797674810574  0.4163363893887272   T   T   T
  0.7505677964228062 -0.0004886268018918  0.0547265551870168   T   T   T
  0.5834103771989433  0.1665863971918452  0.1774901003631219   T   T   T
  0.9173127065683453  0.3334836075762649  0.2981539368069709   T   T   T
  0.7500927341063865 -0.0002125759616755  0.4163040464936244   T   T   T
  0.0009925176184634  0.5002847756957769  0.0482837041613985   T   T   T
  0.3330579033868529  0.6669211481743367  0.1842573048335833   T   T   T
  0.1678558812559504  0.8338496715400612  0.2838146940946215   T   T   T
  0.0004016474234265  0.5006868738614325  0.4174497560883356   T   T   T
  0.0000206696098398  0.7500806258616131  0.0381680807990301   T   T   T
  0.3328089643818845  0.9164016875537301  0.1710280116882278   T   T   T
  0.1667284831247345  0.5831680591776414  0.3008778425923932   T   T   T
 -0.0000534127927657  0.7498508016697145  0.4023732418549910   T   T   T
  0.2497974065452406  0.7490850311866234  0.0483255722924217   T   T   T
  0.0837317030835890  0.9174607805209222  0.1644530592293373   T   T   T
  0.4165868154021525  0.5831348035340713  0.3146639804670890   T   T   T
  0.2491754228000019  0.7494636155032538  0.4174676432861909   T   T   T
  0.2500406303971083  0.5000196656791701  0.0669227524444196   T   T   T
  0.0837348169639861  0.6662720913707839  0.1644257887455517   T   T   T
  0.4164365015990187  0.8326048393798345  0.2981805532737956   T   T   T
  0.2495434448756533  0.5002895367821755  0.4368553244632217   T   T   T
  0.4999451077048719  0.5000275023981131  0.0669521964075785   T   T   T
  0.8325273990189476  0.6662571050926669  0.1644289795476329   T   T   T
  0.6662340197713562  0.8326278784590783  0.2981864088440668   T   T   T
  0.5008148245717583  0.5002920174975007  0.4368564232264168   T   T   T
  0.4996224421401323  0.7492824725358156  0.0609066930197664   T   T   T
  0.8336021451849990  0.9164024249452810  0.1710256798576924   T   T   T
  0.6664866189767648  0.5831704162127961  0.3008785128119820   T   T   T
  0.4995252089391261  0.7489877769045287  0.4278227377684272   T   T   T
  0.7492610896429710  0.7490901337814424  0.0483393802984186   T   T   T
  0.5834014731349579  0.9168114486993870  0.1775528874317078   T   T   T
  0.9160245305395334  0.5820146988930568  0.2837786116174691   T   T   T
  0.7503527789509048  0.7494605450062569  0.4174830191480906   T   T   T
  0.7492655468527761  0.5002850555102827  0.0482965416822092   T   T   T
  0.5838705172111083  0.6669295091351658  0.1842680264044011   T   T   T
  0.9160375485121376  0.8338536591787370  0.2838172576188960   T   T   T
  0.7503473609054525  0.5006685922744434  0.4174333252227130   T   T   T
 
  0.00000000E+00  0.00000000E+00  0.00000000E+00
  0.00000000E+00  0.00000000E+00  0.00000000E+00
  0.00000000E+00  0.00000000E+00  0.00000000E+00
  0.00000000E+00  0.00000000E+00  0.00000000E+00
  0.00000000E+00  0.00000000E+00  0.00000000E+00
  0.00000000E+00  0.00000000E+00  0.00000000E+00
  0.00000000E+00  0.00000000E+00  0.00000000E+00
  0.00000000E+00  0.00000000E+00  0.00000000E+00
  0.00000000E+00  0.00000000E+00  0.00000000E+00
  0.00000000E+00  0.00000000E+00  0.00000000E+00
  0.00000000E+00  0.00000000E+00  0.00000000E+00
  0.00000000E+00  0.00000000E+00  0.00000000E+00
  0.00000000E+00  0.00000000E+00  0.00000000E+00
  0.00000000E+00  0.00000000E+00  0.00000000E+00
  0.00000000E+00  0.00000000E+00  0.00000000E+00
  0.00000000E+00  0.00000000E+00  0.00000000E+00
  0.00000000E+00  0.00000000E+00  0.00000000E+00
  0.00000000E+00  0.00000000E+00  0.00000000E+00
  0.00000000E+00  0.00000000E+00  0.00000000E+00
  0.00000000E+00  0.00000000E+00  0.00000000E+00
  0.00000000E+00  0.00000000E+00  0.00000000E+00
  0.00000000E+00  0.00000000E+00  0.00000000E+00
  0.00000000E+00  0.00000000E+00  0.00000000E+00
  0.00000000E+00  0.00000000E+00  0.00000000E+00
  0.00000000E+00  0.00000000E+00  0.00000000E+00
  0.00000000E+00  0.00000000E+00  0.00000000E+00
  0.00000000E+00  0.00000000E+00  0.00000000E+00
  0.00000000E+00  0.00000000E+00  0.00000000E+00
  0.00000000E+00  0.00000000E+00  0.00000000E+00
  0.00000000E+00  0.00000000E+00  0.00000000E+00
  0.00000000E+00  0.00000000E+00  0.00000000E+00
  0.00000000E+00  0.00000000E+00  0.00000000E+00
  0.00000000E+00  0.00000000E+00  0.00000000E+00
  0.00000000E+00  0.00000000E+00  0.00000000E+00
  0.00000000E+00  0.00000000E+00  0.00000000E+00
  0.00000000E+00  0.00000000E+00  0.00000000E+00
  0.00000000E+00  0.00000000E+00  0.00000000E+00
  0.00000000E+00  0.00000000E+00  0.00000000E+00
  0.00000000E+00  0.00000000E+00  0.00000000E+00
  0.00000000E+00  0.00000000E+00  0.00000000E+00
  0.00000000E+00  0.00000000E+00  0.00000000E+00
  0.00000000E+00  0.00000000E+00  0.00000000E+00
  0.00000000E+00  0.00000000E+00  0.00000000E+00
  0.00000000E+00  0.00000000E+00  0.00000000E+00
  0.00000000E+00  0.00000000E+00  0.00000000E+00
  0.00000000E+00  0.00000000E+00  0.00000000E+00
  0.00000000E+00  0.00000000E+00  0.00000000E+00
  0.00000000E+00  0.00000000E+00  0.00000000E+00
  0.00000000E+00  0.00000000E+00  0.00000000E+00
  0.00000000E+00  0.00000000E+00  0.00000000E+00
  0.00000000E+00  0.00000000E+00  0.00000000E+00
  0.00000000E+00  0.00000000E+00  0.00000000E+00
  0.00000000E+00  0.00000000E+00  0.00000000E+00
  0.00000000E+00  0.00000000E+00  0.00000000E+00
  0.00000000E+00  0.00000000E+00  0.00000000E+00
  0.00000000E+00  0.00000000E+00  0.00000000E+00
  0.00000000E+00  0.00000000E+00  0.00000000E+00
  0.00000000E+00  0.00000000E+00  0.00000000E+00
  0.00000000E+00  0.00000000E+00  0.00000000E+00
  0.00000000E+00  0.00000000E+00  0.00000000E+00
  0.00000000E+00  0.00000000E+00  0.00000000E+00
  0.00000000E+00  0.00000000E+00  0.00000000E+00
  0.00000000E+00  0.00000000E+00  0.00000000E+00
  0.00000000E+00  0.00000000E+00  0.00000000E+00
