PtM\(2)                                 
   1.00000000000000     
    10.5600004195999997    0.0000000000000000    0.0000000000000000
     5.2800002097999998    9.1452286273999999    0.0000000000000000
     0.0000000000000000    0.0000000000000000   22.0000000000000000
   Cu   Pt   H 
    64    16     1
Selective dynamics
Direct
  0.7850644927345556  0.8690752096549375  0.3144981423727273   F   F   F
  0.0347561741828315  0.8695068097013490  0.3142202933181792   F   F   F
  0.0349373104337474  0.6191054180249296  0.3143205411545438   F   F   F
  0.7862489977741944  0.8683580306463838  0.0449029301409070   F   F   F
  0.0363259342032549  0.8683109594885678  0.0449037755136388   F   F   F
  0.0362926956164600  0.6183453800441185  0.0449040668727250   F   F   F
  0.6190059373410435  0.2020352778895287  0.1352781702363615   F   F   F
  0.3690287182127392  0.9520179664196391  0.1352793628454521   F   F   F
  0.0347830173916535  0.3696915657931683  0.3144377034954573   F   F   F
  0.0363223169521234  0.3683400816035913  0.0449042535590891   F   F   F
  0.8690354394784165  0.2020170446548164  0.1352869309954556   F   F   F
  0.9520819992960412  0.5354207312138115  0.2248055194545486   F   F   F
  0.2852461442080809  0.1194358084310139  0.3143542018227237   F   F   F
  0.5344284097055834  0.6188499983197246  0.3160539382863661   F   F   F
  0.2852956324261413  0.3696748338659219  0.3150354898499970   F   F   F
  0.2862743719031045  0.1183406332300407  0.0449050022409097   F   F   F
  0.5363161573872759  0.6183452978263801  0.0448859087045435   F   F   F
  0.2863548261650166  0.3683290234218717  0.0448970020954533   F   F   F
  0.6190115951470077  0.9519934922693309  0.1352729054090887   F   F   F
  0.7020269307617113  0.7854617816090865  0.2248327805909085   F   F   F
  0.8690562341340424  0.7019773347563785  0.1352801621909094   F   F   F
  0.6190154306749704  0.4520216268748740  0.1352790409500031   F   F   F
  0.2849142163645340  0.8694349764835252  0.3148514835681837   F   F   F
  0.2863313801676881  0.8683468335616311  0.0448881439999980   F   F   F
  0.6190297104958304  0.7020185649120592  0.1352794445545484   F   F   F
  0.2020145468797097  0.0355815611022621  0.2249035684136373   F   F   F
  0.5344572716076641  0.3703662495382503  0.3161023161863667   F   F   F
  0.5362909971988969  0.3683687437629146  0.0448882480863659   F   F   F
  0.5350390789422619  0.1190141050754079  0.3142471898727237   F   F   F
  0.5363149216246015  0.1183187474021210  0.0448927739090905   F   F   F
  0.8690821575080889  0.4519764673149709  0.1352776201363639   F   F   F
  0.1190566022182153  0.4520153678952070  0.1352898458409086   F   F   F
  0.0345584187003283  0.1194077743697122  0.3143360685681813   F   F   F
  0.0362816687696892  0.1183447565605249  0.0449075346136354   F   F   F
  0.1190601259472075  0.9519896514796216  0.1352788457909071   F   F   F
  0.4520431099340030  0.5355552271515407  0.2256630701409108   F   F   F
  0.3690244471336612  0.2020149772051383  0.1352856928499975   F   F   F
  0.1190303050251416  0.2020411246214309  0.1352914691636329   F   F   F
  0.9521234733841126  0.7854437816982340  0.2248353085499986   F   F   F
  0.7851450449286972  0.6191225460822309  0.3143245795363612   F   F   F
  0.2859014992801150  0.6189117150928070  0.3159959232681828   F   F   F
  0.7862585535986497  0.6183514669231087  0.0448983113227257   F   F   F
  0.2863148512113511  0.6183444775079039  0.0448935090136331   F   F   F
  0.3690604108637601  0.7020085334733963  0.1352746690909115   F   F   F
  0.3690289842654053  0.4520183087839627  0.1352848660681829   F   F   F
  0.2021186703258664  0.2860385383217832  0.2249932728272697   F   F   F
  0.7843602814347364  0.3696432910569101  0.3150410472545460   F   F   F
  0.7862455880820818  0.3683649368487991  0.0448978039272703   F   F   F
  0.9521184266736569  0.0357165283568079  0.2247759618272696   F   F   F
  0.4519385073612199  0.7850591719368722  0.2252837026772738   F   F   F
  0.7012004185479626  0.5356851282998250  0.2252402818590937   F   F   F
  0.2026087570928823  0.7851193097663796  0.2252688099000011   F   F   F
  0.4517610393683924  0.0357152380336814  0.2247778954727266   F   F   F
  0.1190753377591065  0.7019761661032575  0.1352883550727242   F   F   F
  0.7020102847645617  0.0355575345952204  0.2248361855090906   F   F   F
  0.7851454409082237  0.1190134362676361  0.3142482663863646   F   F   F
  0.5349658660859262  0.8695157556887381  0.3142277560000011   F   F   F
  0.7863001972648362  0.1183328961790693  0.0449101627227293   F   F   F
  0.5362660313703174  0.8683264854426795  0.0448757432500031   F   F   F
  0.2026982096168979  0.5356808996794626  0.2252395309999997   F   F   F
  0.9514404866825430  0.2860462439574576  0.2249849856227257   F   F   F
  0.8690701809434032  0.9519851025282833  0.1352848888045486   F   F   F
  0.7013870351594633  0.2862172789707671  0.2252604251681802   F   F   F
  0.4520312627467362  0.2862153494837401  0.2252621346545425   F   F   F
  0.8675967776270852  0.9538734050741908  0.4136407826045456   F   F   F
  0.1166795002614265  0.4538827273780370  0.4136359316090932   F   F   F
  0.1167462025854817  0.9540454850477076  0.4134786524318201   F   F   F
  0.8680740393692830  0.4539423067195898  0.4136193898090923   F   F   F
  0.3677573494923720  0.9541014855831591  0.4134856229409110   F   F   F
  0.8679642200957502  0.2028493727146312  0.4135001821318198   F   F   F
  0.1174538665397904  0.2036379109342690  0.4129106638545466   F   F   F
  0.6169911541411466  0.9539160461076577  0.4136576472272750   F   F   F
  0.8675664079063452  0.7033814751910441  0.4136559955318191   F   F   F
  0.3676543131352332  0.2029806798747842  0.4135326707954547   F   F   F
  0.3649333430187056  0.7085540164283728  0.4160264774590914   F   F   F
  0.6222214194959577  0.4511314143354497  0.4163592056863621   F   F   F
  0.1142265931132442  0.7050932924935793  0.4130468067454558   F   F   F
  0.6190877655231546  0.2003933417923776  0.4130596379499991   F   F   F
  0.3652031683586685  0.4513844161349994  0.4162895958318202   F   F   F
  0.6192924712983157  0.7051281593747660  0.4130584285227243   F   F   F
  0.4513314989231247  0.5388316799140468  0.4600975426545439   T   T   T
 
  0.00000000E+00  0.00000000E+00  0.00000000E+00
  0.00000000E+00  0.00000000E+00  0.00000000E+00
  0.00000000E+00  0.00000000E+00  0.00000000E+00
  0.00000000E+00  0.00000000E+00  0.00000000E+00
  0.00000000E+00  0.00000000E+00  0.00000000E+00
  0.00000000E+00  0.00000000E+00  0.00000000E+00
  0.00000000E+00  0.00000000E+00  0.00000000E+00
  0.00000000E+00  0.00000000E+00  0.00000000E+00
  0.00000000E+00  0.00000000E+00  0.00000000E+00
  0.00000000E+00  0.00000000E+00  0.00000000E+00
  0.00000000E+00  0.00000000E+00  0.00000000E+00
  0.00000000E+00  0.00000000E+00  0.00000000E+00
  0.00000000E+00  0.00000000E+00  0.00000000E+00
  0.00000000E+00  0.00000000E+00  0.00000000E+00
  0.00000000E+00  0.00000000E+00  0.00000000E+00
  0.00000000E+00  0.00000000E+00  0.00000000E+00
  0.00000000E+00  0.00000000E+00  0.00000000E+00
  0.00000000E+00  0.00000000E+00  0.00000000E+00
  0.00000000E+00  0.00000000E+00  0.00000000E+00
  0.00000000E+00  0.00000000E+00  0.00000000E+00
  0.00000000E+00  0.00000000E+00  0.00000000E+00
  0.00000000E+00  0.00000000E+00  0.00000000E+00
  0.00000000E+00  0.00000000E+00  0.00000000E+00
  0.00000000E+00  0.00000000E+00  0.00000000E+00
  0.00000000E+00  0.00000000E+00  0.00000000E+00
  0.00000000E+00  0.00000000E+00  0.00000000E+00
  0.00000000E+00  0.00000000E+00  0.00000000E+00
  0.00000000E+00  0.00000000E+00  0.00000000E+00
  0.00000000E+00  0.00000000E+00  0.00000000E+00
  0.00000000E+00  0.00000000E+00  0.00000000E+00
  0.00000000E+00  0.00000000E+00  0.00000000E+00
  0.00000000E+00  0.00000000E+00  0.00000000E+00
  0.00000000E+00  0.00000000E+00  0.00000000E+00
  0.00000000E+00  0.00000000E+00  0.00000000E+00
  0.00000000E+00  0.00000000E+00  0.00000000E+00
  0.00000000E+00  0.00000000E+00  0.00000000E+00
  0.00000000E+00  0.00000000E+00  0.00000000E+00
  0.00000000E+00  0.00000000E+00  0.00000000E+00
  0.00000000E+00  0.00000000E+00  0.00000000E+00
  0.00000000E+00  0.00000000E+00  0.00000000E+00
  0.00000000E+00  0.00000000E+00  0.00000000E+00
  0.00000000E+00  0.00000000E+00  0.00000000E+00
  0.00000000E+00  0.00000000E+00  0.00000000E+00
  0.00000000E+00  0.00000000E+00  0.00000000E+00
  0.00000000E+00  0.00000000E+00  0.00000000E+00
  0.00000000E+00  0.00000000E+00  0.00000000E+00
  0.00000000E+00  0.00000000E+00  0.00000000E+00
  0.00000000E+00  0.00000000E+00  0.00000000E+00
  0.00000000E+00  0.00000000E+00  0.00000000E+00
  0.00000000E+00  0.00000000E+00  0.00000000E+00
  0.00000000E+00  0.00000000E+00  0.00000000E+00
  0.00000000E+00  0.00000000E+00  0.00000000E+00
  0.00000000E+00  0.00000000E+00  0.00000000E+00
  0.00000000E+00  0.00000000E+00  0.00000000E+00
  0.00000000E+00  0.00000000E+00  0.00000000E+00
  0.00000000E+00  0.00000000E+00  0.00000000E+00
  0.00000000E+00  0.00000000E+00  0.00000000E+00
  0.00000000E+00  0.00000000E+00  0.00000000E+00
  0.00000000E+00  0.00000000E+00  0.00000000E+00
  0.00000000E+00  0.00000000E+00  0.00000000E+00
  0.00000000E+00  0.00000000E+00  0.00000000E+00
  0.00000000E+00  0.00000000E+00  0.00000000E+00
  0.00000000E+00  0.00000000E+00  0.00000000E+00
  0.00000000E+00  0.00000000E+00  0.00000000E+00
  0.00000000E+00  0.00000000E+00  0.00000000E+00
  0.00000000E+00  0.00000000E+00  0.00000000E+00
  0.00000000E+00  0.00000000E+00  0.00000000E+00
  0.00000000E+00  0.00000000E+00  0.00000000E+00
  0.00000000E+00  0.00000000E+00  0.00000000E+00
  0.00000000E+00  0.00000000E+00  0.00000000E+00
  0.00000000E+00  0.00000000E+00  0.00000000E+00
  0.00000000E+00  0.00000000E+00  0.00000000E+00
  0.00000000E+00  0.00000000E+00  0.00000000E+00
  0.00000000E+00  0.00000000E+00  0.00000000E+00
  0.00000000E+00  0.00000000E+00  0.00000000E+00
  0.00000000E+00  0.00000000E+00  0.00000000E+00
  0.00000000E+00  0.00000000E+00  0.00000000E+00
  0.00000000E+00  0.00000000E+00  0.00000000E+00
  0.00000000E+00  0.00000000E+00  0.00000000E+00
  0.00000000E+00  0.00000000E+00  0.00000000E+00
  0.00000000E+00  0.00000000E+00  0.00000000E+00
