Pt111                                   
   1.00000000000000     
    11.2227001190000006    0.0000000000000000    0.0000000000000000
     5.6113500595000003    9.7191434021000003    0.0000000000000000
     0.0000000000000000    0.0000000000000000   22.0000000000000000
   H 
     2
Direct
  0.4729743919015187  0.5585613460699236  0.5627081454574638
  0.5114491952385100  0.5972153439460243  0.5639153814814930
 
  0.00000000E+00  0.00000000E+00  0.00000000E+00
  0.00000000E+00  0.00000000E+00  0.00000000E+00
