Pt111                                   
   1.00000000000000     
    10.7600000000006002    0.0000000000000000    0.0000000000000000
     5.3800000299999997    9.3184335428900003    0.0000000000000000
     0.0000000000000000    0.0000000000000000   22.0000000000000000
   Pt   H 
    80     1
Selective dynamics
Direct
  0.7840498920682858  0.8701670510745241  0.3330646919657183   T   T   T
  0.0342172272968160  0.8702129958873949  0.3326767964137672   T   T   T
  0.0341609850526776  0.6200332036833952  0.3328054294845103   T   T   T
  0.7870507737579260  0.8678426501169128  0.0118914650545463   F   F   F
  0.0372779274071746  0.8675957294741465  0.0120272303636355   F   F   F
  0.0372176546759775  0.6177043352519149  0.0121421606045473   F   F   F
  0.6194988703750042  0.2017495795561501  0.1202997087909097   F   F   F
  0.3695247491950440  0.9517159934962152  0.1204126198181825   F   F   F
  0.0341163211627288  0.3698237583292724  0.3328273697018628   T   T   T
  0.0373296096475073  0.3676911864241674  0.0122090446136340   F   F   F
  0.8694093127883136  0.2017026668859074  0.1202177461090912   F   F   F
  0.9518943933375612  0.5359083049149167  0.2268707002953072   T   T   T
  0.2837039980922054  0.1203490432771782  0.3327649361796901   T   T   T
  0.5336074737196824  0.6197367893795468  0.3348743974758406   T   T   T
  0.2844639826535371  0.3707719628740873  0.3339686723194999   T   T   T
  0.2870600198401618  0.1177634060756176  0.0121583736636381   F   F   F
  0.5373371835739604  0.6177040926789559  0.0120640131227248   F   F   F
  0.2872304570393638  0.3676393499864474  0.0122185184863639   F   F   F
  0.6193960525988089  0.9517600124504852  0.1202730608999971   F   F   F
  0.7019644377093412  0.7858545947897257  0.2264681936710865   T   T   T
  0.8695683047936456  0.7017388518899068  0.1203580528727244   F   F   F
  0.6196065814622855  0.4516686275679191  0.1203542382272715   F   F   F
  0.2845818677428955  0.8690870614150976  0.3337421683794826   T   T   T
  0.2871328715614752  0.8677371731721593  0.0121088706999970   F   F   F
  0.6195450881186346  0.7017667714107958  0.1203316727590931   F   F   F
  0.2019804069552491  0.0355597681502250  0.2264922294980627   T   T   T
  0.8662032226146953  0.9543336179605776  0.4415831212243528   T   T   T
  0.1155909139609149  0.4547170938792622  0.4412897519375946   T   T   T
  0.1156241774364236  0.9548238202895484  0.4410907895607709   T   T   T
  0.8665798620809478  0.4547138980990267  0.4410971875727173   T   T   T
  0.3663519087800337  0.9549026231728400  0.4411528148247496   T   T   T
  0.8665106935157075  0.2037987675938188  0.4411035895498506   T   T   T
  0.1161711948974856  0.2044722762877788  0.4407896611138825   T   T   T
  0.6163719558556762  0.9543427674019096  0.4415485349312835   T   T   T
  0.8662328406202676  0.7044153310129404  0.4417301883402951   T   T   T
  0.3665500487476344  0.2038112975534196  0.4412839081453462   T   T   T
  0.3644862184323427  0.7079665006280993  0.4457825868741229   T   T   T
  0.6202366990242059  0.4525731894331542  0.4457230495228872   T   T   T
  0.1139163184843642  0.7056889096065696  0.4406464855671723   T   T   T
  0.6173634423960155  0.2021622803917252  0.4405345115219073   T   T   T
  0.5335361558335234  0.3710035803629548  0.3349531639623433   T   T   T
  0.5371524948366897  0.3677961556548368  0.0120238872818206   F   F   F
  0.5336900483236705  0.1205220785485296  0.3327027665960144   T   T   T
  0.5372394747312015  0.1176870910708772  0.0119897472181805   F   F   F
  0.8695109600239164  0.4517377913921905  0.1203964047863622   F   F   F
  0.1195466443831279  0.4517831574505564  0.1205550520136356   F   F   F
  0.0340884890934869  0.1203407804166634  0.3326430663265534   T   T   T
  0.0372068182375713  0.1177123309353760  0.0119642838818166   F   F   F
  0.1194225913920732  0.9517349887489246  0.1203894900272715   F   F   F
  0.3641424842443599  0.4525272766829816  0.4459287841139566   T   T   T
  0.4518917150780725  0.5359006277673057  0.2287109620935799   T   T   T
  0.6172197858780669  0.7058156799761089  0.4404931653810362   T   T   T
  0.3694448685674274  0.2017132153648475  0.1205189144727257   F   F   F
  0.1194889419597800  0.2017415566841052  0.1204813487181795   F   F   F
  0.9518766195376884  0.7858588300737894  0.2265709598072322   T   T   T
  0.7839166334226975  0.6200401726403743  0.3326556544058953   T   T   T
  0.2847678654842908  0.6197381044721240  0.3350795909930182   T   T   T
  0.7872451077550267  0.6177036569190193  0.0120172767136353   F   F   F
  0.2871074736349613  0.6177557705492518  0.0121399544272762   F   F   F
  0.3696045377439319  0.7017165415843110  0.1204705405000013   F   F   F
  0.3695237591178469  0.4517107472008206  0.1205122697545420   F   F   F
  0.2019997007110770  0.2859508308071441  0.2267361466063832   T   T   T
  0.7828137397771346  0.3707182792040971  0.3336903194023031   T   T   T
  0.7872115450879349  0.3676675711567583  0.0119221864681833   F   F   F
  0.9517745501268665  0.0358417132338681  0.2266981183821792   T   T   T
  0.4519476490604015  0.7855064736005845  0.2268221842051336   T   T   T
  0.7014981842699127  0.5359152480455857  0.2268107676460665   T   T   T
  0.2022013466903963  0.7855147492483391  0.2269366692000130   T   T   T
  0.4519499464122156  0.0358529784770912  0.2268271462362202   T   T   T
  0.1195166028286963  0.7017393101321616  0.1204827953772707   F   F   F
  0.7017816317402573  0.0359628332142888  0.2264945220840084   T   T   T
  0.7839044439679835  0.1205117305946647  0.3326045805972461   T   T   T
  0.5337820698302910  0.8702273320428662  0.3326115875192155   T   T   T
  0.7871741037880611  0.1177562090719917  0.0118464780636387   F   F   F
  0.5372289676273567  0.8676320461896552  0.0119001054999970   F   F   F
  0.2022492410666986  0.5358951027084000  0.2270605386684620   T   T   T
  0.9516079535486793  0.2859486433028175  0.2264763152589987   T   T   T
  0.8694763515650124  0.9517922036442741  0.1202551203181841   F   F   F
  0.7014036225395750  0.2862180556766517  0.2266956291751032   T   T   T
  0.4519237218817515  0.2862251521594824  0.2268851302822062   T   T   T
  0.4507746953160245  0.5362173122649000  0.4896502343681740   T   T   T
 
  0.00000000E+00  0.00000000E+00  0.00000000E+00
  0.00000000E+00  0.00000000E+00  0.00000000E+00
  0.00000000E+00  0.00000000E+00  0.00000000E+00
  0.00000000E+00  0.00000000E+00  0.00000000E+00
  0.00000000E+00  0.00000000E+00  0.00000000E+00
  0.00000000E+00  0.00000000E+00  0.00000000E+00
  0.00000000E+00  0.00000000E+00  0.00000000E+00
  0.00000000E+00  0.00000000E+00  0.00000000E+00
  0.00000000E+00  0.00000000E+00  0.00000000E+00
  0.00000000E+00  0.00000000E+00  0.00000000E+00
  0.00000000E+00  0.00000000E+00  0.00000000E+00
  0.00000000E+00  0.00000000E+00  0.00000000E+00
  0.00000000E+00  0.00000000E+00  0.00000000E+00
  0.00000000E+00  0.00000000E+00  0.00000000E+00
  0.00000000E+00  0.00000000E+00  0.00000000E+00
  0.00000000E+00  0.00000000E+00  0.00000000E+00
  0.00000000E+00  0.00000000E+00  0.00000000E+00
  0.00000000E+00  0.00000000E+00  0.00000000E+00
  0.00000000E+00  0.00000000E+00  0.00000000E+00
  0.00000000E+00  0.00000000E+00  0.00000000E+00
  0.00000000E+00  0.00000000E+00  0.00000000E+00
  0.00000000E+00  0.00000000E+00  0.00000000E+00
  0.00000000E+00  0.00000000E+00  0.00000000E+00
  0.00000000E+00  0.00000000E+00  0.00000000E+00
  0.00000000E+00  0.00000000E+00  0.00000000E+00
  0.00000000E+00  0.00000000E+00  0.00000000E+00
  0.00000000E+00  0.00000000E+00  0.00000000E+00
  0.00000000E+00  0.00000000E+00  0.00000000E+00
  0.00000000E+00  0.00000000E+00  0.00000000E+00
  0.00000000E+00  0.00000000E+00  0.00000000E+00
  0.00000000E+00  0.00000000E+00  0.00000000E+00
  0.00000000E+00  0.00000000E+00  0.00000000E+00
  0.00000000E+00  0.00000000E+00  0.00000000E+00
  0.00000000E+00  0.00000000E+00  0.00000000E+00
  0.00000000E+00  0.00000000E+00  0.00000000E+00
  0.00000000E+00  0.00000000E+00  0.00000000E+00
  0.00000000E+00  0.00000000E+00  0.00000000E+00
  0.00000000E+00  0.00000000E+00  0.00000000E+00
  0.00000000E+00  0.00000000E+00  0.00000000E+00
  0.00000000E+00  0.00000000E+00  0.00000000E+00
  0.00000000E+00  0.00000000E+00  0.00000000E+00
  0.00000000E+00  0.00000000E+00  0.00000000E+00
  0.00000000E+00  0.00000000E+00  0.00000000E+00
  0.00000000E+00  0.00000000E+00  0.00000000E+00
  0.00000000E+00  0.00000000E+00  0.00000000E+00
  0.00000000E+00  0.00000000E+00  0.00000000E+00
  0.00000000E+00  0.00000000E+00  0.00000000E+00
  0.00000000E+00  0.00000000E+00  0.00000000E+00
  0.00000000E+00  0.00000000E+00  0.00000000E+00
  0.00000000E+00  0.00000000E+00  0.00000000E+00
  0.00000000E+00  0.00000000E+00  0.00000000E+00
  0.00000000E+00  0.00000000E+00  0.00000000E+00
  0.00000000E+00  0.00000000E+00  0.00000000E+00
  0.00000000E+00  0.00000000E+00  0.00000000E+00
  0.00000000E+00  0.00000000E+00  0.00000000E+00
  0.00000000E+00  0.00000000E+00  0.00000000E+00
  0.00000000E+00  0.00000000E+00  0.00000000E+00
  0.00000000E+00  0.00000000E+00  0.00000000E+00
  0.00000000E+00  0.00000000E+00  0.00000000E+00
  0.00000000E+00  0.00000000E+00  0.00000000E+00
  0.00000000E+00  0.00000000E+00  0.00000000E+00
  0.00000000E+00  0.00000000E+00  0.00000000E+00
  0.00000000E+00  0.00000000E+00  0.00000000E+00
  0.00000000E+00  0.00000000E+00  0.00000000E+00
  0.00000000E+00  0.00000000E+00  0.00000000E+00
  0.00000000E+00  0.00000000E+00  0.00000000E+00
  0.00000000E+00  0.00000000E+00  0.00000000E+00
  0.00000000E+00  0.00000000E+00  0.00000000E+00
  0.00000000E+00  0.00000000E+00  0.00000000E+00
  0.00000000E+00  0.00000000E+00  0.00000000E+00
  0.00000000E+00  0.00000000E+00  0.00000000E+00
  0.00000000E+00  0.00000000E+00  0.00000000E+00
  0.00000000E+00  0.00000000E+00  0.00000000E+00
  0.00000000E+00  0.00000000E+00  0.00000000E+00
  0.00000000E+00  0.00000000E+00  0.00000000E+00
  0.00000000E+00  0.00000000E+00  0.00000000E+00
  0.00000000E+00  0.00000000E+00  0.00000000E+00
  0.00000000E+00  0.00000000E+00  0.00000000E+00
  0.00000000E+00  0.00000000E+00  0.00000000E+00
  0.00000000E+00  0.00000000E+00  0.00000000E+00
  0.00000000E+00  0.00000000E+00  0.00000000E+00
