Pt111\(1\1\1)\(2)                       
   1.00000000000000     
    10.5600004195999997    0.0000000000000000    0.0000000000000000
    -5.2800002097999998    9.1452286273999999    0.0000000000000000
     0.0000000000000000    0.0000000000000000   20.0000000000000000
   Pt
    64
Selective dynamics
Direct
  0.0008382196707769  0.0008720399652816  0.0557922949150012   T   T   F
  0.3334684405303006  0.1691849120221462  0.1803802557876525   T   T   T
  0.1671739167688285  0.3335439973117195  0.3128430705746645   T   T   T
  0.0000660912122205  0.0006084651712898  0.4156699416642996   T   T   T
  0.0015241074312707  0.2507719304937765  0.0557922949150012   T   T   F
  0.3333244236983354  0.4166417890403407  0.1960340945812272   T   T   T
  0.1681093531533968  0.0861541606011391  0.2991039136796271   T   T   T
  0.0005947927143515  0.2502095375435985  0.4262267649118202   T   T   T
  0.2505485567972157  0.2511054700963051  0.0557922949150012   T   T   F
  0.0857408871898372  0.4165147492246210  0.1803630952797456   T   T   T
  0.4173412038249080  0.0851345845201488  0.2961001871488821   T   T   T
  0.2493563311877917  0.2486645942627072  0.4354245224356652   T   T   T
  0.2500225786769441  0.0008724631281142  0.0557922949150012   T   T   F
  0.0857331886485946  0.1691862431369145  0.1803859646979867   T   T   T
  0.4164070972804829  0.3335405910855661  0.3128374118324053   T   T   T
  0.2505734432277199  0.0006200139382643  0.4156721867223034   T   T   T
  0.4993741255335109  0.9997101658651495  0.0557922949150012   T   T   F
  0.8346799626237265  0.1673096392668571  0.1756868962358651   T   T   T
  0.6648066600912578  0.3325942987648944  0.2960961583530441   T   T   T
  0.5003131228219356  0.0000751864697685  0.4153147876286978   T   T   T
  0.4992409200494526  0.2507744312489081  0.0557922949150012   T   T   F
  0.8331337482126878  0.4162684289823242  0.1748262054057986   T   T   T
  0.6666696071230331  0.0832887722577691  0.2936581331054671   T   T   T
  0.4996585794036704  0.2502118271452363  0.4262218243509516   T   T   T
  0.7503161789138287  0.2506528118843724  0.0557922949150012   T   T   F
  0.5808080063330436  0.4165326270001550  0.1803844363660336   T   T   T
  0.9177719597868870  0.0851275809083909  0.2961081437815839   T   T   T
  0.7498117122269233  0.2495739427843892  0.4152979370855356   T   T   T
  0.7503296590191586  0.9997071902880199  0.0557922949150012   T   T   F
  0.5826456116256707  0.1673187628875242  0.1756867094943540   T   T   T
  0.9177992502912370  0.3325642284852925  0.2960775221905383   T   T   T
  0.7497857387589923  0.0000729502255834  0.4153010571380260   T   T   T
  0.0008371375692487  0.4999968680941356  0.0557922949150012   T   T   F
  0.3334706526584853  0.6642441766213891  0.1803863019050671   T   T   T
  0.1681786530558668  0.8340422430724653  0.2911921742293299   T   T   T
  0.0000640124406010  0.4993081745283903  0.4156719343305250   T   T   T
  0.0000011612822999  0.7500148479104202  0.0557922949150012   T   T   F
  0.3337309862881898  0.9168575370206796  0.1748386302645954   T   T   T
  0.1681336128859198  0.5818360110895340  0.2991095009878015   T   T   T
  0.9999615942665511  0.7498939387320182  0.4090286069578680   T   T   T
  0.2500260089393063  0.7491825367540250  0.0557922949150012   T   T   F
  0.0843267642933770  0.9186367144175783  0.1742471779900057   T   T   T
  0.4164040035658132  0.5827800278614933  0.3128514164714534   T   T   T
  0.2505865233218642  0.7498209758297507  0.4156868303788169   T   T   T
  0.2505516679323081  0.4994803155811341  0.0557922949150012   T   T   F
  0.0843285112134000  0.6656581389544521  0.1742513765565449   T   T   T
  0.4173702896151191  0.8321329431765293  0.2961169833675348   T   T   T
  0.2493675288428867  0.5005233231430012  0.4354409259997623   T   T   T
  0.4989155465609512  0.4994829681930433  0.0557922949150012   T   T   F
  0.8313460971517019  0.6656528523424151  0.1742526730261974   T   T   T
  0.6647975592808837  0.8321550338192326  0.2961208795398202   T   T   T
  0.5012202491920960  0.5005213314745651  0.4354359063350587   T   T   T
  0.4992372140572979  0.7484869825110448  0.0557922949150012   T   T   F
  0.8331300189315162  0.9168444524415639  0.1748447387507598   T   T   T
  0.6637749565950447  0.5818327758460722  0.2991307006210985   T   T   T
  0.4996686097391022  0.7493076921144352  0.4262591609872772   T   T   T
  0.7491444714976682  0.7491761939456187  0.0557922949150012   T   T   F
  0.5826569299427334  0.9152899265369627  0.1756982683718289   T   T   T
  0.9158905645359613  0.5817587113966092  0.2911903028692591   T   T   T
  0.7492632603261938  0.7498099051007376  0.4156953206069861   T   T   T
  0.7491426160985371  0.4999995117112968  0.0557922949150012   T   T   F
  0.5807990969723318  0.6642542094670209  0.1803917315327929   T   T   T
  0.9158968368574391  0.8340209251931096  0.2911942550166197   T   T   T
  0.7492897591256023  0.4993069814586103  0.4156921825455425   T   T   T
 
  0.00000000E+00  0.00000000E+00  0.00000000E+00
  0.00000000E+00  0.00000000E+00  0.00000000E+00
  0.00000000E+00  0.00000000E+00  0.00000000E+00
  0.00000000E+00  0.00000000E+00  0.00000000E+00
  0.00000000E+00  0.00000000E+00  0.00000000E+00
  0.00000000E+00  0.00000000E+00  0.00000000E+00
  0.00000000E+00  0.00000000E+00  0.00000000E+00
  0.00000000E+00  0.00000000E+00  0.00000000E+00
  0.00000000E+00  0.00000000E+00  0.00000000E+00
  0.00000000E+00  0.00000000E+00  0.00000000E+00
  0.00000000E+00  0.00000000E+00  0.00000000E+00
  0.00000000E+00  0.00000000E+00  0.00000000E+00
  0.00000000E+00  0.00000000E+00  0.00000000E+00
  0.00000000E+00  0.00000000E+00  0.00000000E+00
  0.00000000E+00  0.00000000E+00  0.00000000E+00
  0.00000000E+00  0.00000000E+00  0.00000000E+00
  0.00000000E+00  0.00000000E+00  0.00000000E+00
  0.00000000E+00  0.00000000E+00  0.00000000E+00
  0.00000000E+00  0.00000000E+00  0.00000000E+00
  0.00000000E+00  0.00000000E+00  0.00000000E+00
  0.00000000E+00  0.00000000E+00  0.00000000E+00
  0.00000000E+00  0.00000000E+00  0.00000000E+00
  0.00000000E+00  0.00000000E+00  0.00000000E+00
  0.00000000E+00  0.00000000E+00  0.00000000E+00
  0.00000000E+00  0.00000000E+00  0.00000000E+00
  0.00000000E+00  0.00000000E+00  0.00000000E+00
  0.00000000E+00  0.00000000E+00  0.00000000E+00
  0.00000000E+00  0.00000000E+00  0.00000000E+00
  0.00000000E+00  0.00000000E+00  0.00000000E+00
  0.00000000E+00  0.00000000E+00  0.00000000E+00
  0.00000000E+00  0.00000000E+00  0.00000000E+00
  0.00000000E+00  0.00000000E+00  0.00000000E+00
  0.00000000E+00  0.00000000E+00  0.00000000E+00
  0.00000000E+00  0.00000000E+00  0.00000000E+00
  0.00000000E+00  0.00000000E+00  0.00000000E+00
  0.00000000E+00  0.00000000E+00  0.00000000E+00
  0.00000000E+00  0.00000000E+00  0.00000000E+00
  0.00000000E+00  0.00000000E+00  0.00000000E+00
  0.00000000E+00  0.00000000E+00  0.00000000E+00
  0.00000000E+00  0.00000000E+00  0.00000000E+00
  0.00000000E+00  0.00000000E+00  0.00000000E+00
  0.00000000E+00  0.00000000E+00  0.00000000E+00
  0.00000000E+00  0.00000000E+00  0.00000000E+00
  0.00000000E+00  0.00000000E+00  0.00000000E+00
  0.00000000E+00  0.00000000E+00  0.00000000E+00
  0.00000000E+00  0.00000000E+00  0.00000000E+00
  0.00000000E+00  0.00000000E+00  0.00000000E+00
  0.00000000E+00  0.00000000E+00  0.00000000E+00
  0.00000000E+00  0.00000000E+00  0.00000000E+00
  0.00000000E+00  0.00000000E+00  0.00000000E+00
  0.00000000E+00  0.00000000E+00  0.00000000E+00
  0.00000000E+00  0.00000000E+00  0.00000000E+00
  0.00000000E+00  0.00000000E+00  0.00000000E+00
  0.00000000E+00  0.00000000E+00  0.00000000E+00
  0.00000000E+00  0.00000000E+00  0.00000000E+00
  0.00000000E+00  0.00000000E+00  0.00000000E+00
  0.00000000E+00  0.00000000E+00  0.00000000E+00
  0.00000000E+00  0.00000000E+00  0.00000000E+00
  0.00000000E+00  0.00000000E+00  0.00000000E+00
  0.00000000E+00  0.00000000E+00  0.00000000E+00
  0.00000000E+00  0.00000000E+00  0.00000000E+00
  0.00000000E+00  0.00000000E+00  0.00000000E+00
  0.00000000E+00  0.00000000E+00  0.00000000E+00
  0.00000000E+00  0.00000000E+00  0.00000000E+00
