PtM\(2)                                 
   1.00000000000000     
    10.5600004195999997    0.0000000000000000    0.0000000000000000
     5.2800002097999998    9.1452286273999999    0.0000000000000000
     0.0000000000000000    0.0000000000000000   22.0000000000000000
   Fe   Pt   H 
    64    16     1
Selective dynamics
Direct
  0.7903729086661571  0.8762798730684480  0.3099131515454516   F   F   F
  0.0410077526486319  0.8720006194276166  0.3174497867318209   F   F   F
  0.0426072373052264  0.6208348207817522  0.3150160124318191   F   F   F
  0.8026267767292836  0.8615467289022831  0.0454892451863671   F   F   F
  0.0404195207448552  0.8617027190320172  0.0531321522045474   F   F   F
  0.0509400554688710  0.6062387638608655  0.0434550926181814   F   F   F
  0.6179624315601515  0.2089407032181825  0.1354205681000025   F   F   F
  0.3771081362849742  0.9520552039687331  0.1315154562954532   F   F   F
  0.0385513541546132  0.3717786302371096  0.3161300261454514   F   F   F
  0.0513505762289554  0.3533140917898123  0.0488741219272697   F   F   F
  0.8796363959013576  0.1964455081765166  0.1405242804454545   F   F   F
  0.9688359178451265  0.5312027758874223  0.2239259729181811   F   F   F
  0.2812758743028425  0.1327856648068533  0.3154561489545458   F   F   F
  0.5219165577007558  0.6243508046581567  0.3106306290181848   F   F   F
  0.2884836817693852  0.3727054809420380  0.3169095060590905   F   F   F
  0.2893256628225913  0.1234214636929067  0.0441537578181794   F   F   F
  0.5276420206625545  0.6272430854941717  0.0450746674136369   F   F   F
  0.2890943956913929  0.3689426548277837  0.0479302053681820   F   F   F
  0.6230886774246684  0.9589308993681485  0.1313536480500019   F   F   F
  0.7084754456467266  0.7886318786816844  0.2181580278000013   F   F   F
  0.8871502961281266  0.6953355374350920  0.1350361609363659   F   F   F
  0.6200488592634272  0.4538069531433777  0.1336872440681844   F   F   F
  0.2774401249253273  0.8769952284812561  0.3151356915818155   F   F   F
  0.2687421993710117  0.8846374397312431  0.0464864681272701   F   F   F
  0.6288621109649597  0.6995904720010202  0.1284261861000005   F   F   F
  0.2140030389494711  0.0348685035762344  0.2267027839727263   F   F   F
  0.5364826338751385  0.3675683934383684  0.3170728266590928   F   F   F
  0.5412157973262453  0.3693050226629708  0.0442518416318194   F   F   F
  0.5331471560350707  0.1291699636858468  0.3143760784500031   F   F   F
  0.5336944517523747  0.1355867285247427  0.0439851245909111   F   F   F
  0.8832888313795024  0.4470977980309314  0.1381582713954543   F   F   F
  0.1402232285351914  0.4469540011666240  0.1355590908681847   F   F   F
  0.0361087250190124  0.1249136073183976  0.3183289966636380   F   F   F
  0.0589967396284408  0.1018350567431128  0.0575243016954516   F   F   F
  0.1342935333655149  0.9375821956829213  0.1424705955181835   F   F   F
  0.4585775049745280  0.5251341773251355  0.2229124342727289   F   F   F
  0.3693613645044209  0.2161502974433560  0.1347813253954513   F   F   F
  0.1352238459015780  0.1985163722709657  0.1393178312181789   F   F   F
  0.9691130723937746  0.7795724805544708  0.2239921460590892   F   F   F
  0.7862788643066807  0.6201784841449580  0.3077144994954537   F   F   F
  0.2886572542938808  0.6152791406156126  0.3194708218636393   F   F   F
  0.8136378082480036  0.6035846078535201  0.0458125345909082   F   F   F
  0.2827328526180111  0.6136847731378765  0.0419772135318155   F   F   F
  0.3711045115008886  0.6919720544809493  0.1297637648999981   F   F   F
  0.3650899884529792  0.4537245194798061  0.1335287959590943   F   F   F
  0.2172108461943409  0.2957887615510657  0.2239936754909095   F   F   F
  0.7860315933352027  0.3701194119148354  0.3145378679318185   F   F   F
  0.7955667169556051  0.3623786591480993  0.0525784573590897   F   F   F
  0.9576469267956043  0.0357422096611870  0.2291157329363642   F   F   F
  0.4549433584225540  0.7832437165036126  0.2174105952409064   F   F   F
  0.7062427484397844  0.5322701163004027  0.2209855131772755   F   F   F
  0.2165730698406350  0.7716523394348727  0.2264947248499993   F   F   F
  0.4525849984368762  0.0485566809308153  0.2192946772272748   F   F   F
  0.1365430804763790  0.6811498989906610  0.1363537004090887   F   F   F
  0.7024764066363431  0.0463362975454089  0.2234218772318215   F   F   F
  0.7871289141871145  0.1249518848086879  0.3167808277863671   F   F   F
  0.5235633438172584  0.8823397871567593  0.3063443762227251   F   F   F
  0.7932310882983060  0.1130335594347969  0.0506874096272725   F   F   F
  0.5386045560987753  0.8807280389435022  0.0462069311772737   F   F   F
  0.2179223064934703  0.5229707037252851  0.2237115033181851   F   F   F
  0.9606382146103840  0.2849843094016720  0.2264104610909072   F   F   F
  0.8774744330611171  0.9478040731130761  0.1404896949318157   F   F   F
  0.6961404916785341  0.2887805473651497  0.2239936284454558   F   F   F
  0.4484290428215374  0.2955101795162349  0.2222738571545477   F   F   F
  0.8683396372599859  0.9569329462338487  0.4122566046727272   F   F   F
  0.1169138822239475  0.4570428525512256  0.4131957812636387   F   F   F
  0.1170982342447857  0.9596605086181569  0.4152749459454554   F   F   F
  0.8668175082126552  0.4592826286174656  0.4098355465954526   F   F   F
  0.3683985324094365  0.9572382645166115  0.4090907776863659   F   F   F
  0.8677141304565339  0.2077499885795788  0.4143133691681840   F   F   F
  0.1180502345448460  0.2080500223908501  0.4143354101136367   F   F   F
  0.6182772486931754  0.9563762065384864  0.4064368397409126   F   F   F
  0.8678473824680708  0.7072544500769737  0.4070124474318177   F   F   F
  0.3692525540225517  0.2069388527400946  0.4131097060909070   F   F   F
  0.3681749784362438  0.7101714400820214  0.4165869840681822   F   F   F
  0.6201450197609191  0.4570875087338777  0.4098451854863612   F   F   F
  0.1155874080164310  0.7078407182085300  0.4137211366954574   F   F   F
  0.6195510848583154  0.2049740398161006  0.4135980903090939   F   F   F
  0.3689650278202663  0.4533955653745991  0.4201690845181787   F   F   F
  0.6172567692935189  0.7089276482247158  0.4026841798909118   F   F   F
  0.3634719335754113  0.5879311377618990  0.4684773665590917   T   T   T
 
  0.00000000E+00  0.00000000E+00  0.00000000E+00
  0.00000000E+00  0.00000000E+00  0.00000000E+00
  0.00000000E+00  0.00000000E+00  0.00000000E+00
  0.00000000E+00  0.00000000E+00  0.00000000E+00
  0.00000000E+00  0.00000000E+00  0.00000000E+00
  0.00000000E+00  0.00000000E+00  0.00000000E+00
  0.00000000E+00  0.00000000E+00  0.00000000E+00
  0.00000000E+00  0.00000000E+00  0.00000000E+00
  0.00000000E+00  0.00000000E+00  0.00000000E+00
  0.00000000E+00  0.00000000E+00  0.00000000E+00
  0.00000000E+00  0.00000000E+00  0.00000000E+00
  0.00000000E+00  0.00000000E+00  0.00000000E+00
  0.00000000E+00  0.00000000E+00  0.00000000E+00
  0.00000000E+00  0.00000000E+00  0.00000000E+00
  0.00000000E+00  0.00000000E+00  0.00000000E+00
  0.00000000E+00  0.00000000E+00  0.00000000E+00
  0.00000000E+00  0.00000000E+00  0.00000000E+00
  0.00000000E+00  0.00000000E+00  0.00000000E+00
  0.00000000E+00  0.00000000E+00  0.00000000E+00
  0.00000000E+00  0.00000000E+00  0.00000000E+00
  0.00000000E+00  0.00000000E+00  0.00000000E+00
  0.00000000E+00  0.00000000E+00  0.00000000E+00
  0.00000000E+00  0.00000000E+00  0.00000000E+00
  0.00000000E+00  0.00000000E+00  0.00000000E+00
  0.00000000E+00  0.00000000E+00  0.00000000E+00
  0.00000000E+00  0.00000000E+00  0.00000000E+00
  0.00000000E+00  0.00000000E+00  0.00000000E+00
  0.00000000E+00  0.00000000E+00  0.00000000E+00
  0.00000000E+00  0.00000000E+00  0.00000000E+00
  0.00000000E+00  0.00000000E+00  0.00000000E+00
  0.00000000E+00  0.00000000E+00  0.00000000E+00
  0.00000000E+00  0.00000000E+00  0.00000000E+00
  0.00000000E+00  0.00000000E+00  0.00000000E+00
  0.00000000E+00  0.00000000E+00  0.00000000E+00
  0.00000000E+00  0.00000000E+00  0.00000000E+00
  0.00000000E+00  0.00000000E+00  0.00000000E+00
  0.00000000E+00  0.00000000E+00  0.00000000E+00
  0.00000000E+00  0.00000000E+00  0.00000000E+00
  0.00000000E+00  0.00000000E+00  0.00000000E+00
  0.00000000E+00  0.00000000E+00  0.00000000E+00
  0.00000000E+00  0.00000000E+00  0.00000000E+00
  0.00000000E+00  0.00000000E+00  0.00000000E+00
  0.00000000E+00  0.00000000E+00  0.00000000E+00
  0.00000000E+00  0.00000000E+00  0.00000000E+00
  0.00000000E+00  0.00000000E+00  0.00000000E+00
  0.00000000E+00  0.00000000E+00  0.00000000E+00
  0.00000000E+00  0.00000000E+00  0.00000000E+00
  0.00000000E+00  0.00000000E+00  0.00000000E+00
  0.00000000E+00  0.00000000E+00  0.00000000E+00
  0.00000000E+00  0.00000000E+00  0.00000000E+00
  0.00000000E+00  0.00000000E+00  0.00000000E+00
  0.00000000E+00  0.00000000E+00  0.00000000E+00
  0.00000000E+00  0.00000000E+00  0.00000000E+00
  0.00000000E+00  0.00000000E+00  0.00000000E+00
  0.00000000E+00  0.00000000E+00  0.00000000E+00
  0.00000000E+00  0.00000000E+00  0.00000000E+00
  0.00000000E+00  0.00000000E+00  0.00000000E+00
  0.00000000E+00  0.00000000E+00  0.00000000E+00
  0.00000000E+00  0.00000000E+00  0.00000000E+00
  0.00000000E+00  0.00000000E+00  0.00000000E+00
  0.00000000E+00  0.00000000E+00  0.00000000E+00
  0.00000000E+00  0.00000000E+00  0.00000000E+00
  0.00000000E+00  0.00000000E+00  0.00000000E+00
  0.00000000E+00  0.00000000E+00  0.00000000E+00
  0.00000000E+00  0.00000000E+00  0.00000000E+00
  0.00000000E+00  0.00000000E+00  0.00000000E+00
  0.00000000E+00  0.00000000E+00  0.00000000E+00
  0.00000000E+00  0.00000000E+00  0.00000000E+00
  0.00000000E+00  0.00000000E+00  0.00000000E+00
  0.00000000E+00  0.00000000E+00  0.00000000E+00
  0.00000000E+00  0.00000000E+00  0.00000000E+00
  0.00000000E+00  0.00000000E+00  0.00000000E+00
  0.00000000E+00  0.00000000E+00  0.00000000E+00
  0.00000000E+00  0.00000000E+00  0.00000000E+00
  0.00000000E+00  0.00000000E+00  0.00000000E+00
  0.00000000E+00  0.00000000E+00  0.00000000E+00
  0.00000000E+00  0.00000000E+00  0.00000000E+00
  0.00000000E+00  0.00000000E+00  0.00000000E+00
  0.00000000E+00  0.00000000E+00  0.00000000E+00
  0.00000000E+00  0.00000000E+00  0.00000000E+00
  0.00000000E+00  0.00000000E+00  0.00000000E+00
