Pt111                                   
   1.00000000000000     
    11.1599999990000001    0.0000000000000000    0.0000000000000000
     5.5799999999000001    9.6648433740000037    0.0000000000000000
     0.0000000000000000    0.0000000000000000   22.0000000000000000
   Pt
    80
Direct
  0.7844285979969925  0.8693641709236530  0.3277274739922689
  0.0344491962657330  0.8693438852270461  0.3277493740047461
  0.0343494028019435  0.6194452472122833  0.3278716617737700
  0.7874635770519163  0.8673889342519843  0.0217817540672911
  0.0369039185712126  0.8681209364599738  0.0219380646993059
  0.0372089304219045  0.6176234070524131  0.0220437856212641
  0.6194850800528471  0.2017381177894393  0.1255108009130765
  0.3694946186001289  0.9517446249992432  0.1255303530468836
  0.0347642025542214  0.3694871595996787  0.3278527875592374
  0.0370287718658275  0.3676012948846434  0.0220738952367583
  0.8694533717250863  0.2019061435323621  0.1254481768052145
  0.9517393657712105  0.5357576080116502  0.2267252863648679
  0.2847229376991791  0.1193415168658873  0.3278369263317131
  0.5344401195936328  0.6193989755252289  0.3277953903841819
  0.2847447585057736  0.3694006131645295  0.3279459118314918
  0.2876023430907395  0.1176072581058847  0.0219911206125616
  0.5367960557838884  0.6176868648222396  0.0218969956452781
  0.2869476318709090  0.3679096808996647  0.0220519038660925
  0.6193062717515971  0.9517408507180747  0.1254443523612636
  0.7015704254041637  0.7855719863838218  0.2265982636758821
  0.8692425852879353  0.7017636494789059  0.1255208504913696
  0.6192754204014719  0.4518762582020059  0.1255288801056196
  0.2844607939043229  0.8694586965658360  0.3278344871835799
  0.2871818341096031  0.8676401971000871  0.0218936289021698
  0.6190283787511390  0.7018389814468264  0.1254338009565572
  0.2019620424524504  0.0358154134504716  0.2267070302656222
  0.8673282668304907  0.9529977364660240  0.4313197647954041
  0.1174881987801228  0.4533003165799840  0.4316076138907263
  0.1167868314363716  0.9530835564029445  0.4314115341143534
  0.8677555928951008  0.4526173368508282  0.4314341724005715
  0.3667441284327211  0.9531681921415469  0.4315257745130268
  0.8672921467362045  0.2031605478126721  0.4314092286740205
  0.1173819276180907  0.2032089029082087  0.4314600730815314
  0.6172973855547568  0.9530270172083348  0.4313817741978596
  0.8668989361818262  0.7029465414226266  0.4314648821935165
  0.3674641974448036  0.2027478573346073  0.4315381011354873
  0.3674557725806693  0.7031430760275086  0.4315599066669975
  0.6173707330738765  0.4527551758970318  0.4314668203591978
  0.1173043916817207  0.7028566469903765  0.4314958893560146
  0.6172424301116806  0.2030432616317199  0.4313459966384769
  0.5345673269087285  0.3694385047750970  0.3277669954104994
  0.5375756556504001  0.3672664199948770  0.0219042253339197
  0.5347310198291098  0.1192816863397610  0.3277588600726844
  0.5372883261850561  0.1177018121723563  0.0218628131378793
  0.8692491279358876  0.4519191292672389  0.1255880297330663
  0.1193197257881451  0.4518318627877278  0.1256672251265485
  0.0346165006869157  0.1194257080126988  0.3277899874571943
  0.0373829550619931  0.1176937196224657  0.0219013216774115
  0.1193614845267348  0.9519178075162813  0.1255518159231030
  0.3671818940706828  0.4531236848081974  0.4316295639633267
  0.4517079654456779  0.5357440708290255  0.2267227161321443
  0.6173312769250003  0.7028265589508180  0.4314614790399034
  0.3694565376349956  0.2019280643876016  0.1256300756814070
  0.1195835971408101  0.2018115596707517  0.1255983173859860
  0.9517656680123423  0.7857220629981470  0.2266871155402512
  0.7844085003413497  0.6192852835275957  0.3277451927587336
  0.2844583218909662  0.6194390756297210  0.3278799007593918
  0.7869423602719792  0.6177860298234634  0.0218795503342548
  0.2870662091029530  0.6176174985853606  0.0219679548370308
  0.3690460114169483  0.7018993896917323  0.1255658642121276
  0.3694378040763695  0.4518082110490127  0.1256101804617131
  0.2020263723835569  0.2856923428082112  0.2268122384288205
  0.7846079441108742  0.3693737744618630  0.3277552884471504
  0.7871748366281750  0.3678317328495737  0.0218155082699312
  0.9518920305536724  0.0357390587641504  0.2266314070560824
  0.4517662364573951  0.7856780104098888  0.2266695305464879
  0.7017205050009281  0.5357786098155373  0.2266447179248132
  0.2016935789988068  0.7856981888850498  0.2267306066374957
  0.4519124369111793  0.0355822096493625  0.2266853919953533
  0.1191611970404978  0.7019593053455750  0.1255986884541258
  0.7019026763480483  0.0356371795353638  0.2265796423555742
  0.7845964567666215  0.1194226364205946  0.3276711190667356
  0.5344374468993252  0.8693149867142154  0.3278138494025313
  0.7873278505139041  0.1176277620702848  0.0218150914441964
  0.5373771247819619  0.8677489017727140  0.0217659130527323
  0.2018500151417015  0.5358312128205824  0.2267860484225608
  0.9520521689476240  0.2857310050376682  0.2267232545124358
  0.8693058877182338  0.9518715660251047  0.1255099655696910
  0.7019444214602686  0.2856320625622857  0.2265773023902469
  0.4520996827899779  0.2856747542637947  0.2267408083291755
 
  0.00000000E+00  0.00000000E+00  0.00000000E+00
  0.00000000E+00  0.00000000E+00  0.00000000E+00
  0.00000000E+00  0.00000000E+00  0.00000000E+00
  0.00000000E+00  0.00000000E+00  0.00000000E+00
  0.00000000E+00  0.00000000E+00  0.00000000E+00
  0.00000000E+00  0.00000000E+00  0.00000000E+00
  0.00000000E+00  0.00000000E+00  0.00000000E+00
  0.00000000E+00  0.00000000E+00  0.00000000E+00
  0.00000000E+00  0.00000000E+00  0.00000000E+00
  0.00000000E+00  0.00000000E+00  0.00000000E+00
  0.00000000E+00  0.00000000E+00  0.00000000E+00
  0.00000000E+00  0.00000000E+00  0.00000000E+00
  0.00000000E+00  0.00000000E+00  0.00000000E+00
  0.00000000E+00  0.00000000E+00  0.00000000E+00
  0.00000000E+00  0.00000000E+00  0.00000000E+00
  0.00000000E+00  0.00000000E+00  0.00000000E+00
  0.00000000E+00  0.00000000E+00  0.00000000E+00
  0.00000000E+00  0.00000000E+00  0.00000000E+00
  0.00000000E+00  0.00000000E+00  0.00000000E+00
  0.00000000E+00  0.00000000E+00  0.00000000E+00
  0.00000000E+00  0.00000000E+00  0.00000000E+00
  0.00000000E+00  0.00000000E+00  0.00000000E+00
  0.00000000E+00  0.00000000E+00  0.00000000E+00
  0.00000000E+00  0.00000000E+00  0.00000000E+00
  0.00000000E+00  0.00000000E+00  0.00000000E+00
  0.00000000E+00  0.00000000E+00  0.00000000E+00
  0.00000000E+00  0.00000000E+00  0.00000000E+00
  0.00000000E+00  0.00000000E+00  0.00000000E+00
  0.00000000E+00  0.00000000E+00  0.00000000E+00
  0.00000000E+00  0.00000000E+00  0.00000000E+00
  0.00000000E+00  0.00000000E+00  0.00000000E+00
  0.00000000E+00  0.00000000E+00  0.00000000E+00
  0.00000000E+00  0.00000000E+00  0.00000000E+00
  0.00000000E+00  0.00000000E+00  0.00000000E+00
  0.00000000E+00  0.00000000E+00  0.00000000E+00
  0.00000000E+00  0.00000000E+00  0.00000000E+00
  0.00000000E+00  0.00000000E+00  0.00000000E+00
  0.00000000E+00  0.00000000E+00  0.00000000E+00
  0.00000000E+00  0.00000000E+00  0.00000000E+00
  0.00000000E+00  0.00000000E+00  0.00000000E+00
  0.00000000E+00  0.00000000E+00  0.00000000E+00
  0.00000000E+00  0.00000000E+00  0.00000000E+00
  0.00000000E+00  0.00000000E+00  0.00000000E+00
  0.00000000E+00  0.00000000E+00  0.00000000E+00
  0.00000000E+00  0.00000000E+00  0.00000000E+00
  0.00000000E+00  0.00000000E+00  0.00000000E+00
  0.00000000E+00  0.00000000E+00  0.00000000E+00
  0.00000000E+00  0.00000000E+00  0.00000000E+00
  0.00000000E+00  0.00000000E+00  0.00000000E+00
  0.00000000E+00  0.00000000E+00  0.00000000E+00
  0.00000000E+00  0.00000000E+00  0.00000000E+00
  0.00000000E+00  0.00000000E+00  0.00000000E+00
  0.00000000E+00  0.00000000E+00  0.00000000E+00
  0.00000000E+00  0.00000000E+00  0.00000000E+00
  0.00000000E+00  0.00000000E+00  0.00000000E+00
  0.00000000E+00  0.00000000E+00  0.00000000E+00
  0.00000000E+00  0.00000000E+00  0.00000000E+00
  0.00000000E+00  0.00000000E+00  0.00000000E+00
  0.00000000E+00  0.00000000E+00  0.00000000E+00
  0.00000000E+00  0.00000000E+00  0.00000000E+00
  0.00000000E+00  0.00000000E+00  0.00000000E+00
  0.00000000E+00  0.00000000E+00  0.00000000E+00
  0.00000000E+00  0.00000000E+00  0.00000000E+00
  0.00000000E+00  0.00000000E+00  0.00000000E+00
  0.00000000E+00  0.00000000E+00  0.00000000E+00
  0.00000000E+00  0.00000000E+00  0.00000000E+00
  0.00000000E+00  0.00000000E+00  0.00000000E+00
  0.00000000E+00  0.00000000E+00  0.00000000E+00
  0.00000000E+00  0.00000000E+00  0.00000000E+00
  0.00000000E+00  0.00000000E+00  0.00000000E+00
  0.00000000E+00  0.00000000E+00  0.00000000E+00
  0.00000000E+00  0.00000000E+00  0.00000000E+00
  0.00000000E+00  0.00000000E+00  0.00000000E+00
  0.00000000E+00  0.00000000E+00  0.00000000E+00
  0.00000000E+00  0.00000000E+00  0.00000000E+00
  0.00000000E+00  0.00000000E+00  0.00000000E+00
  0.00000000E+00  0.00000000E+00  0.00000000E+00
  0.00000000E+00  0.00000000E+00  0.00000000E+00
  0.00000000E+00  0.00000000E+00  0.00000000E+00
  0.00000000E+00  0.00000000E+00  0.00000000E+00
