Pt111                                   
   1.00000000000000     
    11.2227001190000006    0.0000000000000000    0.0000000000000000
     5.6113500595000003    9.7191434021000003    0.0000000000000000
     0.0000000000000000    0.0000000000000000   22.0000000000000000
   Pt   H 
    80     2
Direct
  0.7852558927467032  0.8692397716989733  0.3265301448289662
  0.0353556408736676  0.8688756545862245  0.3265717530069466
  0.0354339332421882  0.6187318009081816  0.3263466125830651
  0.7857187892250471  0.8684314239000117  0.0224155310320697
  0.0359512514499900  0.8683325740708976  0.0225505316629795
  0.0358239456055697  0.6185841137334728  0.0224202642657875
  0.6187761396004899  0.2022484793885348  0.1259702010938800
  0.3691019869980338  0.9513611559704643  0.1259676733596637
  0.0347570813345414  0.3689212717117001  0.3260979768329070
  0.0354956673213041  0.3688035317747739  0.0226398718492753
  0.8683185513026068  0.2020786698952551  0.1259518698722636
  0.9522272243203203  0.5353738415218700  0.2258831286711742
  0.2849990727193693  0.1186119463026405  0.3261098667024122
  0.5352414967644634  0.6191184662661233  0.3285354425683474
  0.2850602703416335  0.3689838406994820  0.3263460739922643
  0.2861671718515462  0.1181328956664001  0.0226570636283564
  0.5357924019023296  0.6183347440604707  0.0228784605199793
  0.2858101021084514  0.3685141679596377  0.0227101647296231
  0.6190177421275171  0.9519363481015236  0.1257757369958694
  0.7019860671924976  0.7854709616565930  0.2263290997151870
  0.8688086935897330  0.7021658168220496  0.1257406680625210
  0.6185726593763857  0.4522783563134550  0.1263925403500409
  0.2860449592039538  0.8672929425739436  0.3275147836325575
  0.2858281864085713  0.8683433267950819  0.0227186990655870
  0.6187723052439574  0.7019669777193180  0.1261437778762583
  0.2018316078363992  0.0353478299285709  0.2260168435002324
  0.8687176055939732  0.9528084974837114  0.4301240486205589
  0.1170183254110275  0.4521693415798251  0.4296767935338132
  0.1177166670060728  0.9530872179526153  0.4301446220142145
  0.8711163523165272  0.4508841980460507  0.4297242199435204
  0.3666792714508900  0.9553129615604756  0.4297333282232052
  0.8689192820872426  0.2019086861728100  0.4301823791064304
  0.1178463185898629  0.2020691189597865  0.4297686045887455
  0.6184979497543069  0.9538794922522840  0.4299789648599495
  0.8696807915299016  0.7027156363308302  0.4299423184776877
  0.3680463960958769  0.2012117945334949  0.4296909627155208
  0.3644241176426489  0.7066602340571045  0.4345417552105083
  0.6226462544654476  0.4484825267155265  0.4343839870509034
  0.1154159749682694  0.7043856556485004  0.4299667929844526
  0.6202373300316562  0.1995366898481366  0.4300250414337420
  0.5347213746598187  0.3698496822805242  0.3280417983667156
  0.5358760423327256  0.3685577051898019  0.0227495793792331
  0.5348479734881857  0.1192827258579341  0.3263644789453181
  0.5359677063821793  0.1184176724277336  0.0224268889540957
  0.8682311752282995  0.4522054273315628  0.1259640561779882
  0.1188840176864772  0.4522639706627769  0.1256316976866544
  0.0350163196814435  0.1187992981189449  0.3263856573554380
  0.0356368895049737  0.1181546926871073  0.0226097765970671
  0.1188629003645600  0.9515160139862419  0.1259821236550719
  0.3635841103503256  0.4477740858672591  0.4317134981559522
  0.4519289352417356  0.5355498025703030  0.2272957506187974
  0.6227318133364343  0.7067888448017260  0.4318612867583755
  0.3690944953830375  0.2020570349468467  0.1256397383679192
  0.1185124304024077  0.2017593394082215  0.1252470410759097
  0.9521154488302590  0.7854182502407681  0.2261783922319061
  0.7850855030867144  0.6191475571987390  0.3267679339874637
  0.2860108014102105  0.6185999321889846  0.3280390365327016
  0.7856665979275811  0.6184356313537465  0.0226179061205319
  0.2859313529482393  0.6184551369751689  0.0227842479414062
  0.3691604400495275  0.7017714930388084  0.1263862812384539
  0.3692654971483468  0.4523648067878956  0.1261273751184657
  0.2014370619011833  0.2849717019342917  0.2256739029822210
  0.7834413034272257  0.3699296378101681  0.3274880854044426
  0.7856649583129487  0.3685140832732204  0.0226974685067937
  0.9517849523446809  0.0354691502491755  0.2262974811654703
  0.4519955352672586  0.7854032482783341  0.2268004972108444
  0.7018391895856650  0.5355518399145920  0.2267800115080058
  0.2024755524649686  0.7851994132723301  0.2266976333973668
  0.4517503218706336  0.0358296919639566  0.2258926387059646
  0.1190432267341535  0.7020103533389068  0.1259768791015023
  0.7018367219952742  0.0357200528111519  0.2261865374020444
  0.7849554615218017  0.1192867514596510  0.3266164608251042
  0.5352323921342734  0.8690177133646731  0.3267704635922878
  0.7856474880363947  0.1185645239798187  0.0225474449721093
  0.5358124384360353  0.8683422097158259  0.0226182231010536
  0.2022500013630407  0.5352930209269684  0.2262386363084377
  0.9517499145101448  0.2853802695893909  0.2260599530634294
  0.8688170370059600  0.9519608769333286  0.1257928349175378
  0.7016418184291501  0.2859873881929240  0.2266959539344246
  0.4517290559364839  0.2857911769183836  0.2262516515429356
  0.4413183647450518  0.5264182519877775  0.4710587667669187
  0.5459826109027887  0.6325186579968376  0.4725953771636834
 
  0.00000000E+00  0.00000000E+00  0.00000000E+00
  0.00000000E+00  0.00000000E+00  0.00000000E+00
  0.00000000E+00  0.00000000E+00  0.00000000E+00
  0.00000000E+00  0.00000000E+00  0.00000000E+00
  0.00000000E+00  0.00000000E+00  0.00000000E+00
  0.00000000E+00  0.00000000E+00  0.00000000E+00
  0.00000000E+00  0.00000000E+00  0.00000000E+00
  0.00000000E+00  0.00000000E+00  0.00000000E+00
  0.00000000E+00  0.00000000E+00  0.00000000E+00
  0.00000000E+00  0.00000000E+00  0.00000000E+00
  0.00000000E+00  0.00000000E+00  0.00000000E+00
  0.00000000E+00  0.00000000E+00  0.00000000E+00
  0.00000000E+00  0.00000000E+00  0.00000000E+00
  0.00000000E+00  0.00000000E+00  0.00000000E+00
  0.00000000E+00  0.00000000E+00  0.00000000E+00
  0.00000000E+00  0.00000000E+00  0.00000000E+00
  0.00000000E+00  0.00000000E+00  0.00000000E+00
  0.00000000E+00  0.00000000E+00  0.00000000E+00
  0.00000000E+00  0.00000000E+00  0.00000000E+00
  0.00000000E+00  0.00000000E+00  0.00000000E+00
  0.00000000E+00  0.00000000E+00  0.00000000E+00
  0.00000000E+00  0.00000000E+00  0.00000000E+00
  0.00000000E+00  0.00000000E+00  0.00000000E+00
  0.00000000E+00  0.00000000E+00  0.00000000E+00
  0.00000000E+00  0.00000000E+00  0.00000000E+00
  0.00000000E+00  0.00000000E+00  0.00000000E+00
  0.00000000E+00  0.00000000E+00  0.00000000E+00
  0.00000000E+00  0.00000000E+00  0.00000000E+00
  0.00000000E+00  0.00000000E+00  0.00000000E+00
  0.00000000E+00  0.00000000E+00  0.00000000E+00
  0.00000000E+00  0.00000000E+00  0.00000000E+00
  0.00000000E+00  0.00000000E+00  0.00000000E+00
  0.00000000E+00  0.00000000E+00  0.00000000E+00
  0.00000000E+00  0.00000000E+00  0.00000000E+00
  0.00000000E+00  0.00000000E+00  0.00000000E+00
  0.00000000E+00  0.00000000E+00  0.00000000E+00
  0.00000000E+00  0.00000000E+00  0.00000000E+00
  0.00000000E+00  0.00000000E+00  0.00000000E+00
  0.00000000E+00  0.00000000E+00  0.00000000E+00
  0.00000000E+00  0.00000000E+00  0.00000000E+00
  0.00000000E+00  0.00000000E+00  0.00000000E+00
  0.00000000E+00  0.00000000E+00  0.00000000E+00
  0.00000000E+00  0.00000000E+00  0.00000000E+00
  0.00000000E+00  0.00000000E+00  0.00000000E+00
  0.00000000E+00  0.00000000E+00  0.00000000E+00
  0.00000000E+00  0.00000000E+00  0.00000000E+00
  0.00000000E+00  0.00000000E+00  0.00000000E+00
  0.00000000E+00  0.00000000E+00  0.00000000E+00
  0.00000000E+00  0.00000000E+00  0.00000000E+00
  0.00000000E+00  0.00000000E+00  0.00000000E+00
  0.00000000E+00  0.00000000E+00  0.00000000E+00
  0.00000000E+00  0.00000000E+00  0.00000000E+00
  0.00000000E+00  0.00000000E+00  0.00000000E+00
  0.00000000E+00  0.00000000E+00  0.00000000E+00
  0.00000000E+00  0.00000000E+00  0.00000000E+00
  0.00000000E+00  0.00000000E+00  0.00000000E+00
  0.00000000E+00  0.00000000E+00  0.00000000E+00
  0.00000000E+00  0.00000000E+00  0.00000000E+00
  0.00000000E+00  0.00000000E+00  0.00000000E+00
  0.00000000E+00  0.00000000E+00  0.00000000E+00
  0.00000000E+00  0.00000000E+00  0.00000000E+00
  0.00000000E+00  0.00000000E+00  0.00000000E+00
  0.00000000E+00  0.00000000E+00  0.00000000E+00
  0.00000000E+00  0.00000000E+00  0.00000000E+00
  0.00000000E+00  0.00000000E+00  0.00000000E+00
  0.00000000E+00  0.00000000E+00  0.00000000E+00
  0.00000000E+00  0.00000000E+00  0.00000000E+00
  0.00000000E+00  0.00000000E+00  0.00000000E+00
  0.00000000E+00  0.00000000E+00  0.00000000E+00
  0.00000000E+00  0.00000000E+00  0.00000000E+00
  0.00000000E+00  0.00000000E+00  0.00000000E+00
  0.00000000E+00  0.00000000E+00  0.00000000E+00
  0.00000000E+00  0.00000000E+00  0.00000000E+00
  0.00000000E+00  0.00000000E+00  0.00000000E+00
  0.00000000E+00  0.00000000E+00  0.00000000E+00
  0.00000000E+00  0.00000000E+00  0.00000000E+00
  0.00000000E+00  0.00000000E+00  0.00000000E+00
  0.00000000E+00  0.00000000E+00  0.00000000E+00
  0.00000000E+00  0.00000000E+00  0.00000000E+00
  0.00000000E+00  0.00000000E+00  0.00000000E+00
  0.00000000E+00  0.00000000E+00  0.00000000E+00
  0.00000000E+00  0.00000000E+00  0.00000000E+00
