Pt   H                                  
   1.00000000000000     
    11.2227001190000006    0.0000000000000000    0.0000000000000000
     5.6113500595000003    9.7191434021000003    0.0000000000000000
     0.0000000000000000    0.0000000000000000   22.0000000000000000
   Pt   H 
    80     2
Direct
  0.7851545850430025  0.8689789875041403  0.3268664448316979
  0.0352148431374211  0.8689690191939219  0.3268222133862078
  0.0351990213563159  0.6188606768451813  0.3267858479095611
  0.7857843022937820  0.8685860428493352  0.0226269907109699
  0.0358796593525581  0.8684829545418995  0.0226252186144778
  0.0358341924066710  0.6184346698870660  0.0226273683966125
  0.6188390580546795  0.2019891775585918  0.1258966626927394
  0.3688103988007861  0.9521153426196306  0.1258579403969678
  0.0352063245303524  0.3689181416083578  0.3267948785397120
  0.0358042730057509  0.3684508658857430  0.0225601049357145
  0.8689305504935799  0.2019762514877236  0.1259150817868239
  0.9519899713543668  0.5355487615029731  0.2263418738755489
  0.2850141962672422  0.1191285664836592  0.3268014718472741
  0.5352261710873737  0.6190364650900498  0.3264620496083596
  0.2849140870959647  0.3688204323263502  0.3266042948718361
  0.2856874324118461  0.1185761432256681  0.0225742330855968
  0.5358281740035042  0.6184736689120444  0.0225444670677526
  0.2856955677005191  0.3684897541881353  0.0225847608550946
  0.6188512588994733  0.9520567534407380  0.1259220035227089
  0.7020808337497797  0.7855224089490287  0.2263430085007508
  0.8688780347579255  0.7020969914793124  0.1259172597336646
  0.6189992925964313  0.4519662024409797  0.1258476642264771
  0.2850720631063283  0.8692447763162287  0.3266394590560487
  0.2857735186107539  0.8685321456127598  0.0225645097496062
  0.6188875960663944  0.7021147676469467  0.1258345128856174
  0.2020253356358874  0.0353829721530699  0.2263746899026632
  0.8682653385343375  0.9524636093769525  0.4301970692495252
  0.1183047058959588  0.4524241672876108  0.4301161756169273
  0.1180062064185136  0.9527778754887504  0.4301208162335520
  0.8683541067501236  0.4525615156090569  0.4300984670227475
  0.3683477491245480  0.9525784195654327  0.4300737486487461
  0.8685373429217939  0.2022877905085473  0.4301389973703749
  0.1182272444497159  0.2025403669426872  0.4301789830357576
  0.6182277876787318  0.9526427752898060  0.4301282281638818
  0.8683862949108009  0.7024947843407545  0.4301603964061422
  0.3682123143100064  0.2025698741510729  0.4301029707001919
  0.3675685397244376  0.7031092242669432  0.4293271040960738
  0.6188671052130127  0.4517803417744158  0.4293406157556923
  0.1179754025110119  0.7025555152464603  0.4300781771831994
  0.6182564683093916  0.2022740694677069  0.4300565702264930
  0.5350479164878046  0.3689052664762436  0.3265907931247896
  0.5358517226422744  0.3685272985250678  0.0225841149172145
  0.5350959120206368  0.1189395748448551  0.3267574338319707
  0.5358060339204255  0.1185047179376389  0.0226108305815336
  0.8689941204446258  0.4519612020632366  0.1258833202414595
  0.1187930402565511  0.4520103290189632  0.1259151783745458
  0.0352007206778898  0.1189623981188901  0.3267945127542328
  0.0358678064310653  0.1184906646086020  0.0226396389509061
  0.1188474134523445  0.9520208844731979  0.1259178108914150
  0.3681303099753940  0.4523101105116795  0.4297296415373926
  0.4520148817831535  0.5354930377666539  0.2261857549554123
  0.6185058178501371  0.7028847220440300  0.4296816921822434
  0.3688135867608947  0.2020157002220390  0.1258789500343280
  0.1188029333691483  0.2020468452433521  0.1259984696869431
  0.9520105507676632  0.7855244693170159  0.2263935442573356
  0.7853392349724674  0.6189050784334930  0.3267248279865850
  0.2850830591424039  0.6188724013305512  0.3266094823981501
  0.7857795498624409  0.6185255849711613  0.0226174747573112
  0.2858379530102229  0.6184649091987525  0.0225973807084937
  0.3689146838546531  0.7020619784917006  0.1258192607310527
  0.3688514453530405  0.4519517545003763  0.1258337692401818
  0.2019210713345028  0.2854506821069847  0.2262965515186779
  0.7853292012609648  0.3689711023671859  0.3266565306169556
  0.7858049046413315  0.3685061566674145  0.0225799371867674
  0.9519482874928940  0.0354759476718828  0.2263897899672816
  0.4520669892584424  0.7855272067952582  0.2262014773216333
  0.7020135772693317  0.5356006863524454  0.2262205809342187
  0.2020356868999934  0.7854501008445581  0.2262799069653517
  0.4519123003587013  0.0355938213559982  0.2263146336420440
  0.1188236661428115  0.7020337728210767  0.1258964347033649
  0.7020293089896851  0.0354823802342161  0.2263887473075528
  0.7851799460299627  0.1189942373971771  0.3268433216874301
  0.5350164705940698  0.8692296325887342  0.3266674285902224
  0.7858289003571813  0.1184937984386367  0.0226473507909326
  0.5357864054491399  0.8685787930457288  0.0225905210564904
  0.2020046630893066  0.5355753118665421  0.2262872779839252
  0.9518312068196505  0.2855492455194757  0.2263912128841714
  0.8688861104665755  0.9519931195250897  0.1259350432045894
  0.7020271581961111  0.2854003325855284  0.2262927140912221
  0.4519905176110074  0.2854921156383411  0.2262801594359822
  0.4733598672722076  0.5587101954723669  0.5494966328965764
  0.5121464288593508  0.5976212425419826  0.5504175975969890
 
  0.00000000E+00  0.00000000E+00  0.00000000E+00
  0.00000000E+00  0.00000000E+00  0.00000000E+00
  0.00000000E+00  0.00000000E+00  0.00000000E+00
  0.00000000E+00  0.00000000E+00  0.00000000E+00
  0.00000000E+00  0.00000000E+00  0.00000000E+00
  0.00000000E+00  0.00000000E+00  0.00000000E+00
  0.00000000E+00  0.00000000E+00  0.00000000E+00
  0.00000000E+00  0.00000000E+00  0.00000000E+00
  0.00000000E+00  0.00000000E+00  0.00000000E+00
  0.00000000E+00  0.00000000E+00  0.00000000E+00
  0.00000000E+00  0.00000000E+00  0.00000000E+00
  0.00000000E+00  0.00000000E+00  0.00000000E+00
  0.00000000E+00  0.00000000E+00  0.00000000E+00
  0.00000000E+00  0.00000000E+00  0.00000000E+00
  0.00000000E+00  0.00000000E+00  0.00000000E+00
  0.00000000E+00  0.00000000E+00  0.00000000E+00
  0.00000000E+00  0.00000000E+00  0.00000000E+00
  0.00000000E+00  0.00000000E+00  0.00000000E+00
  0.00000000E+00  0.00000000E+00  0.00000000E+00
  0.00000000E+00  0.00000000E+00  0.00000000E+00
  0.00000000E+00  0.00000000E+00  0.00000000E+00
  0.00000000E+00  0.00000000E+00  0.00000000E+00
  0.00000000E+00  0.00000000E+00  0.00000000E+00
  0.00000000E+00  0.00000000E+00  0.00000000E+00
  0.00000000E+00  0.00000000E+00  0.00000000E+00
  0.00000000E+00  0.00000000E+00  0.00000000E+00
  0.00000000E+00  0.00000000E+00  0.00000000E+00
  0.00000000E+00  0.00000000E+00  0.00000000E+00
  0.00000000E+00  0.00000000E+00  0.00000000E+00
  0.00000000E+00  0.00000000E+00  0.00000000E+00
  0.00000000E+00  0.00000000E+00  0.00000000E+00
  0.00000000E+00  0.00000000E+00  0.00000000E+00
  0.00000000E+00  0.00000000E+00  0.00000000E+00
  0.00000000E+00  0.00000000E+00  0.00000000E+00
  0.00000000E+00  0.00000000E+00  0.00000000E+00
  0.00000000E+00  0.00000000E+00  0.00000000E+00
  0.00000000E+00  0.00000000E+00  0.00000000E+00
  0.00000000E+00  0.00000000E+00  0.00000000E+00
  0.00000000E+00  0.00000000E+00  0.00000000E+00
  0.00000000E+00  0.00000000E+00  0.00000000E+00
  0.00000000E+00  0.00000000E+00  0.00000000E+00
  0.00000000E+00  0.00000000E+00  0.00000000E+00
  0.00000000E+00  0.00000000E+00  0.00000000E+00
  0.00000000E+00  0.00000000E+00  0.00000000E+00
  0.00000000E+00  0.00000000E+00  0.00000000E+00
  0.00000000E+00  0.00000000E+00  0.00000000E+00
  0.00000000E+00  0.00000000E+00  0.00000000E+00
  0.00000000E+00  0.00000000E+00  0.00000000E+00
  0.00000000E+00  0.00000000E+00  0.00000000E+00
  0.00000000E+00  0.00000000E+00  0.00000000E+00
  0.00000000E+00  0.00000000E+00  0.00000000E+00
  0.00000000E+00  0.00000000E+00  0.00000000E+00
  0.00000000E+00  0.00000000E+00  0.00000000E+00
  0.00000000E+00  0.00000000E+00  0.00000000E+00
  0.00000000E+00  0.00000000E+00  0.00000000E+00
  0.00000000E+00  0.00000000E+00  0.00000000E+00
  0.00000000E+00  0.00000000E+00  0.00000000E+00
  0.00000000E+00  0.00000000E+00  0.00000000E+00
  0.00000000E+00  0.00000000E+00  0.00000000E+00
  0.00000000E+00  0.00000000E+00  0.00000000E+00
  0.00000000E+00  0.00000000E+00  0.00000000E+00
  0.00000000E+00  0.00000000E+00  0.00000000E+00
  0.00000000E+00  0.00000000E+00  0.00000000E+00
  0.00000000E+00  0.00000000E+00  0.00000000E+00
  0.00000000E+00  0.00000000E+00  0.00000000E+00
  0.00000000E+00  0.00000000E+00  0.00000000E+00
  0.00000000E+00  0.00000000E+00  0.00000000E+00
  0.00000000E+00  0.00000000E+00  0.00000000E+00
  0.00000000E+00  0.00000000E+00  0.00000000E+00
  0.00000000E+00  0.00000000E+00  0.00000000E+00
  0.00000000E+00  0.00000000E+00  0.00000000E+00
  0.00000000E+00  0.00000000E+00  0.00000000E+00
  0.00000000E+00  0.00000000E+00  0.00000000E+00
  0.00000000E+00  0.00000000E+00  0.00000000E+00
  0.00000000E+00  0.00000000E+00  0.00000000E+00
  0.00000000E+00  0.00000000E+00  0.00000000E+00
  0.00000000E+00  0.00000000E+00  0.00000000E+00
  0.00000000E+00  0.00000000E+00  0.00000000E+00
  0.00000000E+00  0.00000000E+00  0.00000000E+00
  0.00000000E+00  0.00000000E+00  0.00000000E+00
  0.00000000E+00  0.00000000E+00  0.00000000E+00
  0.00000000E+00  0.00000000E+00  0.00000000E+00
