Cu   Pt   H                             
   1.00000000000000     
    10.5600004195999997    0.0000000000000000    0.0000000000000000
     5.2800002097999998    9.1452286273999999    0.0000000000000000
     0.0000000000000000    0.0000000000000000   22.0000000000000000
   Cu   Pt   H 
    64    16     2
Selective dynamics
Direct
  0.7851858288541991  0.8692167632097639  0.3145852574671994   T   T   T
  0.0351522686058324  0.8692022109466425  0.3146186168963188   T   T   T
  0.0352052589028001  0.6191994083015010  0.3145054679621535   T   T   T
  0.7862489977741944  0.8683580306463838  0.0449029301409070   F   F   F
  0.0363259342032549  0.8683109594885678  0.0449037755136388   F   F   F
  0.0362926956164600  0.6183453800441185  0.0449040668727250   F   F   F
  0.6190059373410435  0.2020352778895287  0.1352781702363615   F   F   F
  0.3690287182127392  0.9520179664196391  0.1352793628454521   F   F   F
  0.0352964758463691  0.3690428256992910  0.3144826573739173   T   T   T
  0.0363223169521234  0.3683400816035913  0.0449042535590891   F   F   F
  0.8690354394784165  0.2020170446548164  0.1352869309954556   F   F   F
  0.9521785547072791  0.5356256114831204  0.2249083870918249   T   T   T
  0.2850034739611489  0.1193227127870142  0.3144757215915165   T   T   T
  0.5356460798819953  0.6197027310337578  0.3132728575914945   T   T   T
  0.2848411145078398  0.3688785399504475  0.3142850169173546   T   T   T
  0.2862743719031045  0.1183406332300407  0.0449050022409097   F   F   F
  0.5363161573872759  0.6183452978263801  0.0448859087045435   F   F   F
  0.2863548261650166  0.3683290234218717  0.0448970020954533   F   F   F
  0.6190115951470077  0.9519934922693309  0.1352729054090887   F   F   F
  0.7021381917312112  0.7856849386035890  0.2249373077117929   T   T   T
  0.8690562341340424  0.7019773347563785  0.1352801621909094   F   F   F
  0.6190154306749704  0.4520216268748740  0.1352790409500031   F   F   F
  0.2847985804606183  0.8701562183196031  0.3141295355084430   T   T   T
  0.2863313801676881  0.8683468335616311  0.0448881439999980   F   F   F
  0.6190297104958304  0.7020185649120592  0.1352794445545484   F   F   F
  0.2019673173407561  0.0357276598620638  0.2248690806632385   T   T   T
  0.5349243964692190  0.3686491743570064  0.3139001992213468   T   T   T
  0.5362909971988969  0.3683687437629146  0.0448882480863659   F   F   F
  0.5351671628794266  0.1192223440445264  0.3144918196803739   T   T   T
  0.5363149216246015  0.1183187474021210  0.0448927739090905   F   F   F
  0.8690821575080889  0.4519764673149709  0.1352776201363639   F   F   F
  0.1190566022182153  0.4520153678952070  0.1352898458409086   F   F   F
  0.0352076719888485  0.1192387376716707  0.3145088275312157   T   T   T
  0.0362816687696892  0.1183447565605249  0.0449075346136354   F   F   F
  0.1190601259472075  0.9519896514796216  0.1352788457909071   F   F   F
  0.4519588560535269  0.5355092224333884  0.2245856744020330   T   T   T
  0.3690244471336612  0.2020149772051383  0.1352856928499975   F   F   F
  0.1190303050251416  0.2020411246214309  0.1352914691636329   F   F   F
  0.9520843923801054  0.7857044192011206  0.2249890628574260   T   T   T
  0.7857197601004394  0.6188644749709238  0.3143491212451925   T   T   T
  0.2846331403948471  0.6189500971631938  0.3139027026690588   T   T   T
  0.7862585535986497  0.6183514669231087  0.0448983113227257   F   F   F
  0.2863148512113511  0.6183444775079039  0.0448935090136331   F   F   F
  0.3690604108637601  0.7020085334733963  0.1352746690909115   F   F   F
  0.3690289842654053  0.4520183087839627  0.1352848660681829   F   F   F
  0.2020138217668336  0.2855740688250893  0.2248695688260166   T   T   T
  0.7860964199096699  0.3688387687393423  0.3141427202085974   T   T   T
  0.7862455880820818  0.3683649368487991  0.0448978039272703   F   F   F
  0.9520440922107978  0.0355857290278588  0.2249971401581542   T   T   T
  0.4518392794045182  0.7863502651752686  0.2245800331047419   T   T   T
  0.7027964720565482  0.5353872844801274  0.2245809955998145   T   T   T
  0.2017430088174182  0.7859675988015095  0.2248160446662712   T   T   T
  0.4520707720943988  0.0357358668756036  0.2248987478600004   T   T   T
  0.1190753377591065  0.7019761661032575  0.1352883550727242   F   F   F
  0.7021596912414183  0.0356235990382318  0.2249787354625252   T   T   T
  0.7851840313197340  0.1191658584693702  0.3146127368848932   T   T   T
  0.5348235170351698  0.8697634574184183  0.3143429614618091   T   T   T
  0.7863001972648362  0.1183328961790693  0.0449101627227293   F   F   F
  0.5362660313703174  0.8683264854426795  0.0448757432500031   F   F   F
  0.2019409808589826  0.5355480021516105  0.2248085864341144   T   T   T
  0.9521335035990528  0.2855515063856550  0.2248854905349950   T   T   T
  0.8690701809434032  0.9519851025282833  0.1352848888045486   F   F   F
  0.7024144930105543  0.2852823587039987  0.2248163199227763   T   T   T
  0.4520025270273057  0.2854892053233498  0.2248037261669266   T   T   T
  0.8679157814913496  0.9529704815622074  0.4137230909073673   T   T   T
  0.1178996649793715  0.4529317643162266  0.4134750778320512   T   T   T
  0.1177492971757138  0.9532092990151191  0.4135136794167903   T   T   T
  0.8681261754091761  0.4529351053186833  0.4135245865163561   T   T   T
  0.3678639536954654  0.9531714305750060  0.4135166473976891   T   T   T
  0.8681685235489841  0.2027674035476808  0.4135090440557504   T   T   T
  0.1179201298505646  0.2030011590069243  0.4136869466217880   T   T   T
  0.6179068647991054  0.9530810035345018  0.4135134100765847   T   T   T
  0.8680127460641645  0.7029901917943255  0.4135192681023965   T   T   T
  0.3678613740465618  0.2029684100507377  0.4134632027473416   T   T   T
  0.3675498632345296  0.7033086127121736  0.4113066073470375   T   T   T
  0.6183504088541190  0.4525319323226586  0.4112712291988100   T   T   T
  0.1177626415251106  0.7029916606935585  0.4135680600648106   T   T   T
  0.6179418023372800  0.2027834529474408  0.4135507982380393   T   T   T
  0.3677646163664647  0.4527780976832450  0.4127775086061454   T   T   T
  0.6181804379185010  0.7032104226682377  0.4126845680108890   T   T   T
  0.4734542342991622  0.5563211577398874  0.5267746402938174   T   T   T
  0.5155359026846675  0.5968749578108231  0.5268478987342512   T   T   T
 
  0.00000000E+00  0.00000000E+00  0.00000000E+00
  0.00000000E+00  0.00000000E+00  0.00000000E+00
  0.00000000E+00  0.00000000E+00  0.00000000E+00
  0.00000000E+00  0.00000000E+00  0.00000000E+00
  0.00000000E+00  0.00000000E+00  0.00000000E+00
  0.00000000E+00  0.00000000E+00  0.00000000E+00
  0.00000000E+00  0.00000000E+00  0.00000000E+00
  0.00000000E+00  0.00000000E+00  0.00000000E+00
  0.00000000E+00  0.00000000E+00  0.00000000E+00
  0.00000000E+00  0.00000000E+00  0.00000000E+00
  0.00000000E+00  0.00000000E+00  0.00000000E+00
  0.00000000E+00  0.00000000E+00  0.00000000E+00
  0.00000000E+00  0.00000000E+00  0.00000000E+00
  0.00000000E+00  0.00000000E+00  0.00000000E+00
  0.00000000E+00  0.00000000E+00  0.00000000E+00
  0.00000000E+00  0.00000000E+00  0.00000000E+00
  0.00000000E+00  0.00000000E+00  0.00000000E+00
  0.00000000E+00  0.00000000E+00  0.00000000E+00
  0.00000000E+00  0.00000000E+00  0.00000000E+00
  0.00000000E+00  0.00000000E+00  0.00000000E+00
  0.00000000E+00  0.00000000E+00  0.00000000E+00
  0.00000000E+00  0.00000000E+00  0.00000000E+00
  0.00000000E+00  0.00000000E+00  0.00000000E+00
  0.00000000E+00  0.00000000E+00  0.00000000E+00
  0.00000000E+00  0.00000000E+00  0.00000000E+00
  0.00000000E+00  0.00000000E+00  0.00000000E+00
  0.00000000E+00  0.00000000E+00  0.00000000E+00
  0.00000000E+00  0.00000000E+00  0.00000000E+00
  0.00000000E+00  0.00000000E+00  0.00000000E+00
  0.00000000E+00  0.00000000E+00  0.00000000E+00
  0.00000000E+00  0.00000000E+00  0.00000000E+00
  0.00000000E+00  0.00000000E+00  0.00000000E+00
  0.00000000E+00  0.00000000E+00  0.00000000E+00
  0.00000000E+00  0.00000000E+00  0.00000000E+00
  0.00000000E+00  0.00000000E+00  0.00000000E+00
  0.00000000E+00  0.00000000E+00  0.00000000E+00
  0.00000000E+00  0.00000000E+00  0.00000000E+00
  0.00000000E+00  0.00000000E+00  0.00000000E+00
  0.00000000E+00  0.00000000E+00  0.00000000E+00
  0.00000000E+00  0.00000000E+00  0.00000000E+00
  0.00000000E+00  0.00000000E+00  0.00000000E+00
  0.00000000E+00  0.00000000E+00  0.00000000E+00
  0.00000000E+00  0.00000000E+00  0.00000000E+00
  0.00000000E+00  0.00000000E+00  0.00000000E+00
  0.00000000E+00  0.00000000E+00  0.00000000E+00
  0.00000000E+00  0.00000000E+00  0.00000000E+00
  0.00000000E+00  0.00000000E+00  0.00000000E+00
  0.00000000E+00  0.00000000E+00  0.00000000E+00
  0.00000000E+00  0.00000000E+00  0.00000000E+00
  0.00000000E+00  0.00000000E+00  0.00000000E+00
  0.00000000E+00  0.00000000E+00  0.00000000E+00
  0.00000000E+00  0.00000000E+00  0.00000000E+00
  0.00000000E+00  0.00000000E+00  0.00000000E+00
  0.00000000E+00  0.00000000E+00  0.00000000E+00
  0.00000000E+00  0.00000000E+00  0.00000000E+00
  0.00000000E+00  0.00000000E+00  0.00000000E+00
  0.00000000E+00  0.00000000E+00  0.00000000E+00
  0.00000000E+00  0.00000000E+00  0.00000000E+00
  0.00000000E+00  0.00000000E+00  0.00000000E+00
  0.00000000E+00  0.00000000E+00  0.00000000E+00
  0.00000000E+00  0.00000000E+00  0.00000000E+00
  0.00000000E+00  0.00000000E+00  0.00000000E+00
  0.00000000E+00  0.00000000E+00  0.00000000E+00
  0.00000000E+00  0.00000000E+00  0.00000000E+00
  0.00000000E+00  0.00000000E+00  0.00000000E+00
  0.00000000E+00  0.00000000E+00  0.00000000E+00
  0.00000000E+00  0.00000000E+00  0.00000000E+00
  0.00000000E+00  0.00000000E+00  0.00000000E+00
  0.00000000E+00  0.00000000E+00  0.00000000E+00
  0.00000000E+00  0.00000000E+00  0.00000000E+00
  0.00000000E+00  0.00000000E+00  0.00000000E+00
  0.00000000E+00  0.00000000E+00  0.00000000E+00
  0.00000000E+00  0.00000000E+00  0.00000000E+00
  0.00000000E+00  0.00000000E+00  0.00000000E+00
  0.00000000E+00  0.00000000E+00  0.00000000E+00
  0.00000000E+00  0.00000000E+00  0.00000000E+00
  0.00000000E+00  0.00000000E+00  0.00000000E+00
  0.00000000E+00  0.00000000E+00  0.00000000E+00
  0.00000000E+00  0.00000000E+00  0.00000000E+00
  0.00000000E+00  0.00000000E+00  0.00000000E+00
  0.00000000E+00  0.00000000E+00  0.00000000E+00
  0.00000000E+00  0.00000000E+00  0.00000000E+00
