Pt111                                   
   1.00000000000000     
    10.8599996560000012    0.0000000000000000    0.0000000000000000
     5.4299998282000006    9.4050210000029999    0.0000000000000000
     0.0000000000000000    0.0000000000000000   22.0000000000000000
   Pt   H 
    80     1
Selective dynamics
Direct
  0.7843722274735181  0.8695329031083220  0.3313390637011317   T   T   T
  0.0343607350838648  0.8698907368365739  0.3309561459665418   T   T   T
  0.0345847294768559  0.6194728906008578  0.3310383689436729   T   T   T
  0.7873349205994558  0.8674952269003313  0.0152308212318175   F   F   F
  0.0367320842392829  0.8681520879642264  0.0153527600727301   F   F   F
  0.0373989073856364  0.6176409446718054  0.0154994863090891   F   F   F
  0.6194189960789487  0.2016990408314214  0.1221737267772696   F   F   F
  0.3693809322184478  0.9517463079345774  0.1222103793636364   F   F   F
  0.0344340107410197  0.3695382178552516  0.3311977145354295   T   T   T
  0.0370201046572518  0.3674583872166650  0.0155577393772717   F   F   F
  0.8693491073940578  0.2018116199314619  0.1220913001454562   F   F   F
  0.9518546375206683  0.5357250722564681  0.2267608765978454   T   T   T
  0.2839633477486677  0.1201942895865451  0.3310519156468356   T   T   T
  0.5339152097176892  0.6197226037031873  0.3315971755251538   T   T   T
  0.2849192433941188  0.3700772680858254  0.3317115785917320   T   T   T
  0.2873765952147238  0.1175330330787858  0.0155092398909105   F   F   F
  0.5370283186585354  0.6177182214051555  0.0154576016727290   F   F   F
  0.2869306445795914  0.3679224259997795  0.0155646461636394   F   F   F
  0.6194349702689763  0.9517380813394425  0.1221158665999980   F   F   F
  0.7018470546809465  0.7856657084656294  0.2266119018078077   T   T   T
  0.8694070270772301  0.7018263132211899  0.1221937459090938   F   F   F
  0.6195360711749984  0.4517638478955703  0.1221993142909099   F   F   F
  0.2845561546295801  0.8692510169493939  0.3313094717136801   T   T   T
  0.2871738252107079  0.8674417730802944  0.0154894865772732   F   F   F
  0.6194883820982255  0.7018104038468280  0.1221261640000009   F   F   F
  0.2017392742651472  0.0358776386056393  0.2264499783230750   T   T   T
  0.8668810550615355  0.9540300873973051  0.4385559555747328   T   T   T
  0.1166082825871315  0.4539860943242280  0.4382314377373306   T   T   T
  0.1164856891250862  0.9546947366012319  0.4376728437476005   T   T   T
  0.8672970692000330  0.4540409394189356  0.4381524823478379   T   T   T
  0.3668430004032061  0.9546156692183599  0.4376776888290972   T   T   T
  0.8667149952604378  0.2037942145174000  0.4380327431010493   T   T   T
  0.1168438567167514  0.2041048004821232  0.4382416511257632   T   T   T
  0.6166620671423949  0.9540848592734923  0.4385579830153721   T   T   T
  0.8673337997271706  0.7033196419392294  0.4384507325445778   T   T   T
  0.3672888406079270  0.2039895162942491  0.4381627780063426   T   T   T
  0.3648890701126008  0.7078507727118059  0.4399086237580511   T   T   T
  0.6206766174023886  0.4525901858275324  0.4402466157998947   T   T   T
  0.1139994094227103  0.7058079910654448  0.4373721555476986   T   T   T
  0.6182842197752781  0.2013708740247113  0.4375766025366610   T   T   T
  0.5341241175284243  0.3702974396050212  0.3319168158764969   T   T   T
  0.5376474681861438  0.3673583408584520  0.0154035115590929   F   F   F
  0.5342283132014396  0.1197731084999053  0.3310728516760357   T   T   T
  0.5369274456555360  0.1179193705787185  0.0153290209681813   F   F   F
  0.8693781160558061  0.4518802796930146  0.1222732369272705   F   F   F
  0.1194584541925181  0.4517461022786264  0.1223683905500010   F   F   F
  0.0342211262989698  0.1201984243077629  0.3309742305716645   T   T   T
  0.0371957276002561  0.1175270138577744  0.0153231484045477   F   F   F
  0.1193796142450552  0.9517801007884117  0.1222630085136345   F   F   F
  0.3647463464524775  0.4526365580506261  0.4402311602587975   T   T   T
  0.4519004625884780  0.5356145640631159  0.2269989574595991   T   T   T
  0.6181234890723385  0.7056968429680195  0.4372298267320108   T   T   T
  0.3693120500594844  0.2018414474352994  0.1223099325681787   F   F   F
  0.1194348561054355  0.2016564451795873  0.1222742190636339   F   F   F
  0.9518684091932481  0.7856535001856992  0.2266542944659257   T   T   T
  0.7844284943439366  0.6194816247778389  0.3309708656199342   T   T   T
  0.2847721639191823  0.6197326457684321  0.3316861704712992   T   T   T
  0.7870878835189146  0.6179567151948007  0.0153573722500013   F   F   F
  0.2873208842736119  0.6175525319930841  0.0154873564681850   F   F   F
  0.3693384632384067  0.7017612812239236  0.1222807710363654   F   F   F
  0.3695367096322997  0.4518049357889424  0.1222576316000001   F   F   F
  0.2018667548584663  0.2857237470366445  0.2266954076446430   T   T   T
  0.7834553093439507  0.3701193405637598  0.3316025693593100   T   T   T
  0.7872776184030883  0.3679514371418122  0.0152802674000014   F   F   F
  0.9517382779308722  0.0356942391183412  0.2266734244015742   T   T   T
  0.4517797717165576  0.7855917567194584  0.2265416017622998   T   T   T
  0.7016704557598474  0.5356386606144810  0.2266749344127851   T   T   T
  0.2019631353237622  0.7855899363554814  0.2266471564256778   T   T   T
  0.4519124722112310  0.0356710418152095  0.2267150894205472   T   T   T
  0.1195018543957218  0.7018589200277034  0.1222523523545433   F   F   F
  0.7018316037210868  0.0356308258542347  0.2265912986385661   T   T   T
  0.7843825541031616  0.1197388575664498  0.3310106896590301   T   T   T
  0.5340968205014485  0.8698464726780470  0.3308864274607566   T   T   T
  0.7869536912459267  0.1177381509408235  0.0151841713954539   F   F   F
  0.5372347044807952  0.8678857375966942  0.0152472441227260   F   F   F
  0.2021312944599519  0.5356007786999616  0.2267829187380879   T   T   T
  0.9517601096769647  0.2857354366886140  0.2265620392539280   T   T   T
  0.8691736140476394  0.9518780234937410  0.1221645144818169   F   F   F
  0.7016943021332646  0.2858142296937832  0.2266902642249125   T   T   T
  0.4519274382179286  0.2858283340849245  0.2267745725380563   T   T   T
  0.4509255563147862  0.5378016150336714  0.4831522700634413   T   T   T
 
  0.00000000E+00  0.00000000E+00  0.00000000E+00
  0.00000000E+00  0.00000000E+00  0.00000000E+00
  0.00000000E+00  0.00000000E+00  0.00000000E+00
  0.00000000E+00  0.00000000E+00  0.00000000E+00
  0.00000000E+00  0.00000000E+00  0.00000000E+00
  0.00000000E+00  0.00000000E+00  0.00000000E+00
  0.00000000E+00  0.00000000E+00  0.00000000E+00
  0.00000000E+00  0.00000000E+00  0.00000000E+00
  0.00000000E+00  0.00000000E+00  0.00000000E+00
  0.00000000E+00  0.00000000E+00  0.00000000E+00
  0.00000000E+00  0.00000000E+00  0.00000000E+00
  0.00000000E+00  0.00000000E+00  0.00000000E+00
  0.00000000E+00  0.00000000E+00  0.00000000E+00
  0.00000000E+00  0.00000000E+00  0.00000000E+00
  0.00000000E+00  0.00000000E+00  0.00000000E+00
  0.00000000E+00  0.00000000E+00  0.00000000E+00
  0.00000000E+00  0.00000000E+00  0.00000000E+00
  0.00000000E+00  0.00000000E+00  0.00000000E+00
  0.00000000E+00  0.00000000E+00  0.00000000E+00
  0.00000000E+00  0.00000000E+00  0.00000000E+00
  0.00000000E+00  0.00000000E+00  0.00000000E+00
  0.00000000E+00  0.00000000E+00  0.00000000E+00
  0.00000000E+00  0.00000000E+00  0.00000000E+00
  0.00000000E+00  0.00000000E+00  0.00000000E+00
  0.00000000E+00  0.00000000E+00  0.00000000E+00
  0.00000000E+00  0.00000000E+00  0.00000000E+00
  0.00000000E+00  0.00000000E+00  0.00000000E+00
  0.00000000E+00  0.00000000E+00  0.00000000E+00
  0.00000000E+00  0.00000000E+00  0.00000000E+00
  0.00000000E+00  0.00000000E+00  0.00000000E+00
  0.00000000E+00  0.00000000E+00  0.00000000E+00
  0.00000000E+00  0.00000000E+00  0.00000000E+00
  0.00000000E+00  0.00000000E+00  0.00000000E+00
  0.00000000E+00  0.00000000E+00  0.00000000E+00
  0.00000000E+00  0.00000000E+00  0.00000000E+00
  0.00000000E+00  0.00000000E+00  0.00000000E+00
  0.00000000E+00  0.00000000E+00  0.00000000E+00
  0.00000000E+00  0.00000000E+00  0.00000000E+00
  0.00000000E+00  0.00000000E+00  0.00000000E+00
  0.00000000E+00  0.00000000E+00  0.00000000E+00
  0.00000000E+00  0.00000000E+00  0.00000000E+00
  0.00000000E+00  0.00000000E+00  0.00000000E+00
  0.00000000E+00  0.00000000E+00  0.00000000E+00
  0.00000000E+00  0.00000000E+00  0.00000000E+00
  0.00000000E+00  0.00000000E+00  0.00000000E+00
  0.00000000E+00  0.00000000E+00  0.00000000E+00
  0.00000000E+00  0.00000000E+00  0.00000000E+00
  0.00000000E+00  0.00000000E+00  0.00000000E+00
  0.00000000E+00  0.00000000E+00  0.00000000E+00
  0.00000000E+00  0.00000000E+00  0.00000000E+00
  0.00000000E+00  0.00000000E+00  0.00000000E+00
  0.00000000E+00  0.00000000E+00  0.00000000E+00
  0.00000000E+00  0.00000000E+00  0.00000000E+00
  0.00000000E+00  0.00000000E+00  0.00000000E+00
  0.00000000E+00  0.00000000E+00  0.00000000E+00
  0.00000000E+00  0.00000000E+00  0.00000000E+00
  0.00000000E+00  0.00000000E+00  0.00000000E+00
  0.00000000E+00  0.00000000E+00  0.00000000E+00
  0.00000000E+00  0.00000000E+00  0.00000000E+00
  0.00000000E+00  0.00000000E+00  0.00000000E+00
  0.00000000E+00  0.00000000E+00  0.00000000E+00
  0.00000000E+00  0.00000000E+00  0.00000000E+00
  0.00000000E+00  0.00000000E+00  0.00000000E+00
  0.00000000E+00  0.00000000E+00  0.00000000E+00
  0.00000000E+00  0.00000000E+00  0.00000000E+00
  0.00000000E+00  0.00000000E+00  0.00000000E+00
  0.00000000E+00  0.00000000E+00  0.00000000E+00
  0.00000000E+00  0.00000000E+00  0.00000000E+00
  0.00000000E+00  0.00000000E+00  0.00000000E+00
  0.00000000E+00  0.00000000E+00  0.00000000E+00
  0.00000000E+00  0.00000000E+00  0.00000000E+00
  0.00000000E+00  0.00000000E+00  0.00000000E+00
  0.00000000E+00  0.00000000E+00  0.00000000E+00
  0.00000000E+00  0.00000000E+00  0.00000000E+00
  0.00000000E+00  0.00000000E+00  0.00000000E+00
  0.00000000E+00  0.00000000E+00  0.00000000E+00
  0.00000000E+00  0.00000000E+00  0.00000000E+00
  0.00000000E+00  0.00000000E+00  0.00000000E+00
  0.00000000E+00  0.00000000E+00  0.00000000E+00
  0.00000000E+00  0.00000000E+00  0.00000000E+00
  0.00000000E+00  0.00000000E+00  0.00000000E+00
