Pt111                                   
   1.00000000000000     
    10.5600000059999992    0.0000000000000000    0.0000000000000000
     5.2800002098030001    9.1452286273900008    0.0000000000000000
     0.0000000000000000    0.0000000000000000   22.0000000000000000
   Pt
    80
Selective dynamics
Direct
  0.7786221078380038  0.8746595005525949  0.3350590482733007   T   T   T
  0.0290171480793744  0.8755676838899983  0.3368642502916617   T   T   T
  0.0288830298188631  0.6234739623695353  0.3380967949897866   T   T   T
  0.7943996793240075  0.8612017661600048  0.0039716029638353   T   T   T
  0.0449609773273496  0.8612488924957113  0.0060658585992165   T   T   T
  0.0451202312827676  0.6106955003785431  0.0062103912942470   T   T   T
  0.6219459286023271  0.2003251502541941  0.1250603986817405   T   T   T
  0.3720115019371548  0.9485403501958803  0.1103084223796928   T   T   T
  0.0292176420203069  0.3744925982492919  0.3225517847192240   T   T   T
  0.0437919583818284  0.3621303014568419 -0.0079202614249268   T   T   T
  0.8709080155141075  0.2012845844791347  0.1079690615452501   T   T   T
  0.9506173450850354  0.5370859549854994  0.2194100228443685   T   T   T
  0.2793335996689263  0.1244997088869214  0.3225690833923875   T   T   T
  0.5293227856410456  0.6243268111879811  0.3512994638800095   T   T   T
  0.2778104927979861  0.3739601850300738  0.3421233922498235   T   T   T
  0.2951599030519049  0.1109534406427957 -0.0056408749196691   T   T   T
  0.5443827316642116  0.6114563949825302  0.0172295656170799   T   T   T
  0.2954077713023675  0.3627759555026530  0.0000276514650536   T   T   T
  0.6224520611530978  0.9499960620326994  0.1190471154904364   T   T   T
  0.7002393958961344  0.7870677150780779  0.2286466477233382   T   T   T
  0.8717142054542383  0.7006005118769975  0.1162832347265447   T   T   T
  0.6227378040333106  0.4495488492275992  0.1268204832498744   T   T   T
  0.2781542359928087  0.8756227368370888  0.3394997806218051   T   T   T
  0.2952170253389241  0.8589402319804748 -0.0009758538162540   T   T   T
  0.6220742328589671  0.6996602072845305  0.1242537110566235   T   T   T
  0.2012785709695955  0.0357268793346073  0.2116539186770768   T   T   T
  0.8574763681975844  0.9621502179585339  0.4460503603643451   T   T   T
  0.1075203096673347  0.4610222180730650  0.4487291875664327   T   T   T
  0.1078049144942859  0.9626192575774852  0.4462343350205142   T   T   T
  0.8576426341229648  0.4614276766312308  0.4444770998889409   T   T   T
  0.3568989482482534  0.9621786326578085  0.4452325601118511   T   T   T
  0.8579655398727515  0.2124114798519998  0.4452694672594487   T   T   T
  0.1081236191010384  0.2117018410863622  0.4292464695369406   T   T   T
  0.6069996156493700  0.9624175512728570  0.4497256102689804   T   T   T
  0.8574757585755542  0.7121330342696848  0.4466662600499632   T   T   T
  0.3562876390610344  0.2122349575947627  0.4485335953907008   T   T   T
  0.3573052148879233  0.7127623446452673  0.4631505228106698   T   T   T
  0.6092519467190384  0.4612510669743766  0.4650145348794945   T   T   T
  0.1079567587748099  0.7118737490258407  0.4531867509487049   T   T   T
  0.6075976342944071  0.2125939285819643  0.4546978480996269   T   T   T
  0.5293597334293895  0.3742253779784173  0.3524740290516598   T   T   T
  0.5443701397795876  0.3614165740878222  0.0178778073311931   T   T   T
  0.5278173087075022  0.1246930506904016  0.3397431430969312   T   T   T
  0.5440243800898352  0.1119170433253395  0.0081542733266054   T   T   T
  0.8708769413923340  0.4500317566776628  0.1086630461535887   T   T   T
  0.1234426871372408  0.4502894119316603  0.1105716077981922   T   T   T
  0.0289756102158294  0.1242796602649370  0.3217240488146793   T   T   T
  0.0435153513053340  0.1110879139881562 -0.0087967370510637   T   T   T
  0.1234970487404702  0.9481128873817884  0.1089182710727166   T   T   T
  0.3571760972747150  0.4615548632427395  0.4640323411317453   T   T   T
  0.4502191735404064  0.5374832195892747  0.2476218565410567   T   T   T
  0.6074561399547159  0.7115053509586052  0.4526063678034656   T   T   T
  0.3718282818743636  0.2015194434144198  0.1112799781498607   T   T   T
  0.1221100801214008  0.2001352680653732  0.0987285210792225   T   T   T
  0.9500476896392771  0.7875382480250925  0.2280626878716788   T   T   T
  0.7793933524786943  0.6235750410594360  0.3359666391942903   T   T   T
  0.2778889775751883  0.6251351796757679  0.3521401435643731   T   T   T
  0.7940708081999340  0.6107885551981289  0.0050764373639108   T   T   T
  0.2935866122325206  0.6117713420067965  0.0211459848683297   T   T   T
  0.3718674727279347  0.7006602768403131  0.1297316956450537   T   T   T
  0.3717839617573027  0.4494810265752138  0.1313390832776656   T   T   T
  0.2013119970699017  0.2881522997477337  0.2132809767965394   T   T   T
  0.7796380540342491  0.3739941063237857  0.3373928116215066   T   T   T
  0.7913293243288959  0.3628304650129648 -0.0043878512068184   T   T   T
  0.9505541118581603  0.0375172669919295  0.2183212123744978   T   T   T
  0.4491448376962028  0.7881002850438694  0.2346648048488649   T   T   T
  0.7006065608018351  0.5363228842319695  0.2321318378519053   T   T   T
  0.1999655929023109  0.7884984768469460  0.2348095606839967   T   T   T
  0.4499476169006602  0.0377413121958915  0.2211289852949903   T   T   T
  0.1223071385536028  0.6997210527493446  0.1259172619634648   T   T   T
  0.6998847689654221  0.0382494014736691  0.2295729074086449   T   T   T
  0.7792438246585679  0.1253734824470597  0.3364626608812143   T   T   T
  0.5280694903384997  0.8754940707276870  0.3376617705107195   T   T   T
  0.7937856047559936  0.1122536234764437  0.0051302007766900   T   T   T
  0.5438841276558197  0.8612602658807952  0.0080709866353404   T   T   T
  0.1998997862575921  0.5366468443927140  0.2365133329410874   T   T   T
  0.9495833659993224  0.2877016962741359  0.2114628389722259   T   T   T
  0.8716976090469449  0.9499260019180380  0.1160690169344336   T   T   T
  0.7008574713201423  0.2879229748917606  0.2322759777510535   T   T   T
  0.4489904109040688  0.2877453186576286  0.2368943016063863   T   T   T
 
  0.00000000E+00  0.00000000E+00  0.00000000E+00
  0.00000000E+00  0.00000000E+00  0.00000000E+00
  0.00000000E+00  0.00000000E+00  0.00000000E+00
  0.00000000E+00  0.00000000E+00  0.00000000E+00
  0.00000000E+00  0.00000000E+00  0.00000000E+00
  0.00000000E+00  0.00000000E+00  0.00000000E+00
  0.00000000E+00  0.00000000E+00  0.00000000E+00
  0.00000000E+00  0.00000000E+00  0.00000000E+00
  0.00000000E+00  0.00000000E+00  0.00000000E+00
  0.00000000E+00  0.00000000E+00  0.00000000E+00
  0.00000000E+00  0.00000000E+00  0.00000000E+00
  0.00000000E+00  0.00000000E+00  0.00000000E+00
  0.00000000E+00  0.00000000E+00  0.00000000E+00
  0.00000000E+00  0.00000000E+00  0.00000000E+00
  0.00000000E+00  0.00000000E+00  0.00000000E+00
  0.00000000E+00  0.00000000E+00  0.00000000E+00
  0.00000000E+00  0.00000000E+00  0.00000000E+00
  0.00000000E+00  0.00000000E+00  0.00000000E+00
  0.00000000E+00  0.00000000E+00  0.00000000E+00
  0.00000000E+00  0.00000000E+00  0.00000000E+00
  0.00000000E+00  0.00000000E+00  0.00000000E+00
  0.00000000E+00  0.00000000E+00  0.00000000E+00
  0.00000000E+00  0.00000000E+00  0.00000000E+00
  0.00000000E+00  0.00000000E+00  0.00000000E+00
  0.00000000E+00  0.00000000E+00  0.00000000E+00
  0.00000000E+00  0.00000000E+00  0.00000000E+00
  0.00000000E+00  0.00000000E+00  0.00000000E+00
  0.00000000E+00  0.00000000E+00  0.00000000E+00
  0.00000000E+00  0.00000000E+00  0.00000000E+00
  0.00000000E+00  0.00000000E+00  0.00000000E+00
  0.00000000E+00  0.00000000E+00  0.00000000E+00
  0.00000000E+00  0.00000000E+00  0.00000000E+00
  0.00000000E+00  0.00000000E+00  0.00000000E+00
  0.00000000E+00  0.00000000E+00  0.00000000E+00
  0.00000000E+00  0.00000000E+00  0.00000000E+00
  0.00000000E+00  0.00000000E+00  0.00000000E+00
  0.00000000E+00  0.00000000E+00  0.00000000E+00
  0.00000000E+00  0.00000000E+00  0.00000000E+00
  0.00000000E+00  0.00000000E+00  0.00000000E+00
  0.00000000E+00  0.00000000E+00  0.00000000E+00
  0.00000000E+00  0.00000000E+00  0.00000000E+00
  0.00000000E+00  0.00000000E+00  0.00000000E+00
  0.00000000E+00  0.00000000E+00  0.00000000E+00
  0.00000000E+00  0.00000000E+00  0.00000000E+00
  0.00000000E+00  0.00000000E+00  0.00000000E+00
  0.00000000E+00  0.00000000E+00  0.00000000E+00
  0.00000000E+00  0.00000000E+00  0.00000000E+00
  0.00000000E+00  0.00000000E+00  0.00000000E+00
  0.00000000E+00  0.00000000E+00  0.00000000E+00
  0.00000000E+00  0.00000000E+00  0.00000000E+00
  0.00000000E+00  0.00000000E+00  0.00000000E+00
  0.00000000E+00  0.00000000E+00  0.00000000E+00
  0.00000000E+00  0.00000000E+00  0.00000000E+00
  0.00000000E+00  0.00000000E+00  0.00000000E+00
  0.00000000E+00  0.00000000E+00  0.00000000E+00
  0.00000000E+00  0.00000000E+00  0.00000000E+00
  0.00000000E+00  0.00000000E+00  0.00000000E+00
  0.00000000E+00  0.00000000E+00  0.00000000E+00
  0.00000000E+00  0.00000000E+00  0.00000000E+00
  0.00000000E+00  0.00000000E+00  0.00000000E+00
  0.00000000E+00  0.00000000E+00  0.00000000E+00
  0.00000000E+00  0.00000000E+00  0.00000000E+00
  0.00000000E+00  0.00000000E+00  0.00000000E+00
  0.00000000E+00  0.00000000E+00  0.00000000E+00
  0.00000000E+00  0.00000000E+00  0.00000000E+00
  0.00000000E+00  0.00000000E+00  0.00000000E+00
  0.00000000E+00  0.00000000E+00  0.00000000E+00
  0.00000000E+00  0.00000000E+00  0.00000000E+00
  0.00000000E+00  0.00000000E+00  0.00000000E+00
  0.00000000E+00  0.00000000E+00  0.00000000E+00
  0.00000000E+00  0.00000000E+00  0.00000000E+00
  0.00000000E+00  0.00000000E+00  0.00000000E+00
  0.00000000E+00  0.00000000E+00  0.00000000E+00
  0.00000000E+00  0.00000000E+00  0.00000000E+00
  0.00000000E+00  0.00000000E+00  0.00000000E+00
  0.00000000E+00  0.00000000E+00  0.00000000E+00
  0.00000000E+00  0.00000000E+00  0.00000000E+00
  0.00000000E+00  0.00000000E+00  0.00000000E+00
  0.00000000E+00  0.00000000E+00  0.00000000E+00
  0.00000000E+00  0.00000000E+00  0.00000000E+00
