Pt111\(1\1\1)\(2)                       
   1.00000000000000     
    10.5600004195999997    0.0000000000000000    0.0000000000000000
    -5.2800002097999998    9.1452286273999999    0.0000000000000000
     0.0000000000000000    0.0000000000000000   20.0000000000000000
   Pt   H 
    64     1
Selective dynamics
Direct
  0.9999984446215961  0.0000015553793773  0.0557922949150012   F   F   F
  0.3333317286582087  0.1666682603465262  0.1775239735950009   F   F   F
  0.1678921311833435  0.3340332224552043  0.2986307089449980   F   F   F
  0.9999938741108778  0.0000186905879502  0.4192359505849979   F   F   F
  0.9999984416169312  0.2500015483757210  0.0557922949150012   F   F   F
  0.3333317206590891  0.4166682673501754  0.1775239735950009   F   F   F
  0.1674586402284319  0.0849124774172836  0.2985688733649994   F   F   F
  0.9990338361283264  0.2498032420267080  0.4158171196200016   F   F   F
  0.2499984416169312  0.2500015483757210  0.0557922949150012   F   F   F
  0.0833317206590891  0.4166682673501754  0.1775239735950009   F   F   F
  0.4165666490081108  0.0831426488586544  0.2967703472699981   F   F   F
  0.2486899166903953  0.2473751662502934  0.4260721357199984   F   F   F
  0.2499984446215961  0.0000015553793773  0.0557922949150012   F   F   F
  0.0833317236582047  0.1666682603465262  0.1775239735950009   F   F   F
  0.4161458923133381  0.3340332224552043  0.2986307089449980   F   F   F
  0.2500294826132503  0.0000186905879502  0.4192359505849979   F   F   F
  0.4999984446215961  0.0000015553793773  0.0557922949150012   F   F   F
  0.8333316836582085  0.1666682603465262  0.1775239735950009   F   F   F
  0.6670709932557912  0.3336472471183569  0.2967831332999964   F   F   F
  0.5000002604601121  0.0001756135647781  0.4205252432950033   F   F   F
  0.4999984296188273  0.2500015483757210  0.0557922949150012   F   F   F
  0.8333316756590889  0.4166682673501754  0.1775239735950009   F   F   F
  0.6667469903001404  0.0834891095682835  0.2986363445950033   F   F   F
  0.5007740610307749  0.2498032420267080  0.4158171196200016   F   F   F
  0.7499984076207227  0.2500015483757210  0.0557922949150012   F   F   F
  0.5833316756590889  0.4166682673501754  0.1775239735950009   F   F   F
  0.9165808248977001  0.0831426488586544  0.2967703472699981   F   F   F
  0.7502539195031872  0.2505032398682943  0.4206070265850030   F   F   F
  0.7499984216197078  0.0000015553793773  0.0557922949150012   F   F   F
  0.5833316616506323  0.1666682603465262  0.1775239735950009   F   F   F
  0.9165810779059385  0.3336472471183569  0.2967831332999964   F   F   F
  0.7501799962389555  0.0001756135647781  0.4205252432950033   F   F   F
  0.9999984376190483  0.5000015423780582  0.0557922949150012   F   F   F
  0.3333317066506325  0.6666682603465262  0.1775239735950009   F   F   F
  0.1665989964343950  0.8334015018569119  0.2974413680000012   F   F   F
  0.0000760678554101  0.5004468623657772  0.4191547381600031   F   F   F
  0.9999984326223199  0.7500015093827130  0.0557922949150012   F   F   F
  0.3333317276521655  0.9166682803514945  0.1775239735950009   F   F   F
  0.1674580697012331  0.5827410780779090  0.2985183304149999   F   F   F
  0.0001330556134249  0.7502614230925673  0.4183232513999968   F   F   F
  0.2499984326223199  0.7500015093827130  0.0557922949150012   F   F   F
  0.0833317276521655  0.9166682803514945  0.1775239735950009   F   F   F
  0.4161574603088241  0.5823100505704915  0.2986464530549995   F   F   F
  0.2499782850276162  0.7502790864344675  0.4191680352199967   F   F   F
  0.2499984376190483  0.5000015423780582  0.0557922949150012   F   F   F
  0.0833317066506325  0.6666682603465262  0.1775239735950009   F   F   F
  0.4165690681519010  0.8336565189915319  0.2967660982100000   F   F   F
  0.2487359127899751  0.5016799249013815  0.4259014830250010   F   F   F
  0.4999984376190483  0.5000015423780582  0.0557922949150012   F   F   F
  0.8333317066506325  0.6666682603465262  0.1775239735950009   F   F   F
  0.6670923208773161  0.8336565189915319  0.2967660982100000   F   F   F
  0.5029486772437934  0.5016799249013815  0.4259014830250010   F   F   F
  0.4999984326223199  0.7500015093827130  0.0557922949150012   F   F   F
  0.8333317046597415  0.9166682803514945  0.1775239735950009   F   F   F
  0.6652878904124648  0.5827410780779090  0.2985183304149999   F   F   F
  0.5006677554114560  0.7513308226886224  0.4158169738850006   F   F   F
  0.7499984106242152  0.7500015093827130  0.0557922949150012   F   F   F
  0.5833316826521724  0.9166682803514945  0.1775239735950009   F   F   F
  0.9168122607237663  0.5836196514003831  0.2974380912350014   F   F   F
  0.7503054675430292  0.7502790864344675  0.4191680352199967   F   F   F
  0.7499983926190481  0.5000015423780582  0.0557922949150012   F   F   F
  0.5833316616506323  0.6666682603465262  0.1775239735950009   F   F   F
  0.9168073304602089  0.8334015018569119  0.2974413680000012   F   F   F
  0.7503754146427610  0.5004468623657772  0.4191547381600031   F   F   F
  0.3330883110078914  0.4161766220252545  0.4761592952349964   T   T   T
 
  0.00000000E+00  0.00000000E+00  0.00000000E+00
  0.00000000E+00  0.00000000E+00  0.00000000E+00
  0.00000000E+00  0.00000000E+00  0.00000000E+00
  0.00000000E+00  0.00000000E+00  0.00000000E+00
  0.00000000E+00  0.00000000E+00  0.00000000E+00
  0.00000000E+00  0.00000000E+00  0.00000000E+00
  0.00000000E+00  0.00000000E+00  0.00000000E+00
  0.00000000E+00  0.00000000E+00  0.00000000E+00
  0.00000000E+00  0.00000000E+00  0.00000000E+00
  0.00000000E+00  0.00000000E+00  0.00000000E+00
  0.00000000E+00  0.00000000E+00  0.00000000E+00
  0.00000000E+00  0.00000000E+00  0.00000000E+00
  0.00000000E+00  0.00000000E+00  0.00000000E+00
  0.00000000E+00  0.00000000E+00  0.00000000E+00
  0.00000000E+00  0.00000000E+00  0.00000000E+00
  0.00000000E+00  0.00000000E+00  0.00000000E+00
  0.00000000E+00  0.00000000E+00  0.00000000E+00
  0.00000000E+00  0.00000000E+00  0.00000000E+00
  0.00000000E+00  0.00000000E+00  0.00000000E+00
  0.00000000E+00  0.00000000E+00  0.00000000E+00
  0.00000000E+00  0.00000000E+00  0.00000000E+00
  0.00000000E+00  0.00000000E+00  0.00000000E+00
  0.00000000E+00  0.00000000E+00  0.00000000E+00
  0.00000000E+00  0.00000000E+00  0.00000000E+00
  0.00000000E+00  0.00000000E+00  0.00000000E+00
  0.00000000E+00  0.00000000E+00  0.00000000E+00
  0.00000000E+00  0.00000000E+00  0.00000000E+00
  0.00000000E+00  0.00000000E+00  0.00000000E+00
  0.00000000E+00  0.00000000E+00  0.00000000E+00
  0.00000000E+00  0.00000000E+00  0.00000000E+00
  0.00000000E+00  0.00000000E+00  0.00000000E+00
  0.00000000E+00  0.00000000E+00  0.00000000E+00
  0.00000000E+00  0.00000000E+00  0.00000000E+00
  0.00000000E+00  0.00000000E+00  0.00000000E+00
  0.00000000E+00  0.00000000E+00  0.00000000E+00
  0.00000000E+00  0.00000000E+00  0.00000000E+00
  0.00000000E+00  0.00000000E+00  0.00000000E+00
  0.00000000E+00  0.00000000E+00  0.00000000E+00
  0.00000000E+00  0.00000000E+00  0.00000000E+00
  0.00000000E+00  0.00000000E+00  0.00000000E+00
  0.00000000E+00  0.00000000E+00  0.00000000E+00
  0.00000000E+00  0.00000000E+00  0.00000000E+00
  0.00000000E+00  0.00000000E+00  0.00000000E+00
  0.00000000E+00  0.00000000E+00  0.00000000E+00
  0.00000000E+00  0.00000000E+00  0.00000000E+00
  0.00000000E+00  0.00000000E+00  0.00000000E+00
  0.00000000E+00  0.00000000E+00  0.00000000E+00
  0.00000000E+00  0.00000000E+00  0.00000000E+00
  0.00000000E+00  0.00000000E+00  0.00000000E+00
  0.00000000E+00  0.00000000E+00  0.00000000E+00
  0.00000000E+00  0.00000000E+00  0.00000000E+00
  0.00000000E+00  0.00000000E+00  0.00000000E+00
  0.00000000E+00  0.00000000E+00  0.00000000E+00
  0.00000000E+00  0.00000000E+00  0.00000000E+00
  0.00000000E+00  0.00000000E+00  0.00000000E+00
  0.00000000E+00  0.00000000E+00  0.00000000E+00
  0.00000000E+00  0.00000000E+00  0.00000000E+00
  0.00000000E+00  0.00000000E+00  0.00000000E+00
  0.00000000E+00  0.00000000E+00  0.00000000E+00
  0.00000000E+00  0.00000000E+00  0.00000000E+00
  0.00000000E+00  0.00000000E+00  0.00000000E+00
  0.00000000E+00  0.00000000E+00  0.00000000E+00
  0.00000000E+00  0.00000000E+00  0.00000000E+00
  0.00000000E+00  0.00000000E+00  0.00000000E+00
  0.00000000E+00  0.00000000E+00  0.00000000E+00
