Pt   H                                  
   1.00000000000000     
    10.5600004195999997    0.0000000000000000    0.0000000000000000
    -5.2800002097999998    9.1452286273999999    0.0000000000000000
     0.0000000000000000    0.0000000000000000   20.0000000000000000
   Pt   H 
    64     2
Selective dynamics
Direct
  0.9999984446215961  0.0000015553793773  0.0557922949150012   F   F   F
  0.3332969212795632  0.1682613735670040  0.1790297013404365   T   T   T
  0.1678969045846961  0.3330309897518429  0.3076330343084234   T   T   T
  1.0003752612514190  0.0009520484033265  0.4170605718650252   T   T   T
  0.9999984416169312  0.2500015483757210  0.0557922949150012   F   F   F
  0.3333475748324615  0.4165088144983219  0.1874461418037946   T   T   T
  0.1688895977616448  0.0865918700854253  0.3006097093120264   T   T   T
  0.9996381469811991  0.2501622407426339  0.4219161871904029   T   T   T
  0.2499984416169312  0.2500015483757210  0.0557922949150012   F   F   F
  0.0849146314066497  0.4159600497127868  0.1784825237067114   T   T   T
  0.4167941094619885  0.0838438808050015  0.2956783127683748   T   T   T
  0.2485307585966282  0.2490339628502088  0.4384364255714084   T   T   T
  0.2499984446215961  0.0000015553793773  0.0557922949150012   F   F   F
  0.0852351655074536  0.1682037008884310  0.1806409120479631   T   T   T
  0.4159861606689205  0.3341188739141373  0.3061343798463180   T   T   T
  0.2498880855869590  0.0003235893959964  0.4176751759296261   T   T   T
  0.4999984446215961  0.0000015553793773  0.0557922949150012   F   F   F
  0.8341437892081182  0.1666026122029715  0.1775584584094416   T   T   T
  0.6662412554499036  0.3331759782145507  0.2953570957333165   T   T   T
  0.5002069771153160  0.0003874772452613  0.4174302140046101   T   T   T
  0.4999984296188273  0.2500015483757210  0.0557922949150012   F   F   F
  0.8330790143736773  0.4159583785155062  0.1753676202710576   T   T   T
  0.6667381338188992  0.0833237967822528  0.2966093328630464   T   T   T
  0.5000541552855642  0.2503818889368070  0.4177432668067082   T   T   T
  0.7499984076207227  0.2500015483757210  0.0557922949150012   F   F   F
  0.5815580283464069  0.4165189509727109  0.1787629854728313   T   T   T
  0.9172654861374040  0.0838741500711445  0.2974150326572441   T   T   T
  0.7500034817030022  0.2501418994358947  0.4172879337831936   T   T   T
  0.7499984216197078  0.0000015553793773  0.0557922949150012   F   F   F
  0.5829713788542706  0.1668264969691844  0.1762162899857217   T   T   T
  0.9176781789012742  0.3326795732621494  0.2962557988375343   T   T   T
  0.7499062982804270  0.0005259163854195  0.4187034313975057   T   T   T
  0.9999984376190483  0.5000015423780582  0.0557922949150012   F   F   F
  0.3339252628322947  0.6650090272106388  0.1784701357395292   T   T   T
  0.1677123871432394  0.8342753016286887  0.2921950438069442   T   T   T
  0.9997805889193404  0.5003732295525265  0.4145894821193417   T   T   T
  0.9999984326223199  0.7500015093827130  0.0557922949150012   F   F   F
  0.3338902798310660  0.9168649567186933  0.1755090649580704   T   T   T
  0.1683379801978959  0.5818049830091114  0.2960953772369286   T   T   T
  0.9998946219949166  0.7506499431744369  0.4098735074763244   T   T   T
  0.2499984326223199  0.7500015093827130  0.0557922949150012   F   F   F
  0.0841303718895225  0.9183970942830030  0.1753316290806713   T   T   T
  0.4170098353903920  0.5821945531839927  0.3074553672442190   T   T   T
  0.2500872077838456  0.7506640567252988  0.4146980614625691   T   T   T
  0.2499984376190483  0.5000015423780582  0.0557922949150012   F   F   F
  0.0838025829945126  0.6661608354283847  0.1740142060274640   T   T   T
  0.4174029409287790  0.8325003691670412  0.2962658356841389   T   T   T
  0.2488512482964234  0.5016272047923112  0.4274567035374356   T   T   T
  0.4999984376190483  0.5000015423780582  0.0557922949150012   F   F   F
  0.8316084798056068  0.6658379197191225  0.1751769537183222   T   T   T
  0.6662359583590181  0.8329408798786251  0.2972724396439262   T   T   T
  0.5017258736265894  0.5020376268508024  0.4373683422432175   T   T   T
  0.4999984326223199  0.7500015093827130  0.0557922949150012   F   F   F
  0.8329823868163424  0.9169965143446287  0.1755132161792702   T   T   T
  0.6635082910677531  0.5812885087984487  0.3000580260638656   T   T   T
  0.5003119689389017  0.7508033974842514  0.4217502686227705   T   T   T
  0.7499984106242152  0.7500015093827130  0.0557922949150012   F   F   F
  0.5832849434687160  0.9157980559898116  0.1775685498178928   T   T   T
  0.9159985462997091  0.5824867578331384  0.2919656850407282   T   T   T
  0.7496489996049913  0.7502544649368421  0.4167439496257817   T   T   T
  0.7499983926190481  0.5000015423780582  0.0557922949150012   F   F   F
  0.5816874882240272  0.6646971917775368  0.1804299254174413   T   T   T
  0.9160455226964249  0.8341556005193432  0.2922724098922253   T   T   T
  0.7501527986057583  0.5005502481502276  0.4168874810491021   T   T   T
  0.3496142699887258  0.3969215922163421  0.5202716133090290   T   T   T
  0.3978758830432071  0.3540962167024845  0.5216489920639928   T   T   T
 
  0.00000000E+00  0.00000000E+00  0.00000000E+00
  0.00000000E+00  0.00000000E+00  0.00000000E+00
  0.00000000E+00  0.00000000E+00  0.00000000E+00
  0.00000000E+00  0.00000000E+00  0.00000000E+00
  0.00000000E+00  0.00000000E+00  0.00000000E+00
  0.00000000E+00  0.00000000E+00  0.00000000E+00
  0.00000000E+00  0.00000000E+00  0.00000000E+00
  0.00000000E+00  0.00000000E+00  0.00000000E+00
  0.00000000E+00  0.00000000E+00  0.00000000E+00
  0.00000000E+00  0.00000000E+00  0.00000000E+00
  0.00000000E+00  0.00000000E+00  0.00000000E+00
  0.00000000E+00  0.00000000E+00  0.00000000E+00
  0.00000000E+00  0.00000000E+00  0.00000000E+00
  0.00000000E+00  0.00000000E+00  0.00000000E+00
  0.00000000E+00  0.00000000E+00  0.00000000E+00
  0.00000000E+00  0.00000000E+00  0.00000000E+00
  0.00000000E+00  0.00000000E+00  0.00000000E+00
  0.00000000E+00  0.00000000E+00  0.00000000E+00
  0.00000000E+00  0.00000000E+00  0.00000000E+00
  0.00000000E+00  0.00000000E+00  0.00000000E+00
  0.00000000E+00  0.00000000E+00  0.00000000E+00
  0.00000000E+00  0.00000000E+00  0.00000000E+00
  0.00000000E+00  0.00000000E+00  0.00000000E+00
  0.00000000E+00  0.00000000E+00  0.00000000E+00
  0.00000000E+00  0.00000000E+00  0.00000000E+00
  0.00000000E+00  0.00000000E+00  0.00000000E+00
  0.00000000E+00  0.00000000E+00  0.00000000E+00
  0.00000000E+00  0.00000000E+00  0.00000000E+00
  0.00000000E+00  0.00000000E+00  0.00000000E+00
  0.00000000E+00  0.00000000E+00  0.00000000E+00
  0.00000000E+00  0.00000000E+00  0.00000000E+00
  0.00000000E+00  0.00000000E+00  0.00000000E+00
  0.00000000E+00  0.00000000E+00  0.00000000E+00
  0.00000000E+00  0.00000000E+00  0.00000000E+00
  0.00000000E+00  0.00000000E+00  0.00000000E+00
  0.00000000E+00  0.00000000E+00  0.00000000E+00
  0.00000000E+00  0.00000000E+00  0.00000000E+00
  0.00000000E+00  0.00000000E+00  0.00000000E+00
  0.00000000E+00  0.00000000E+00  0.00000000E+00
  0.00000000E+00  0.00000000E+00  0.00000000E+00
  0.00000000E+00  0.00000000E+00  0.00000000E+00
  0.00000000E+00  0.00000000E+00  0.00000000E+00
  0.00000000E+00  0.00000000E+00  0.00000000E+00
  0.00000000E+00  0.00000000E+00  0.00000000E+00
  0.00000000E+00  0.00000000E+00  0.00000000E+00
  0.00000000E+00  0.00000000E+00  0.00000000E+00
  0.00000000E+00  0.00000000E+00  0.00000000E+00
  0.00000000E+00  0.00000000E+00  0.00000000E+00
  0.00000000E+00  0.00000000E+00  0.00000000E+00
  0.00000000E+00  0.00000000E+00  0.00000000E+00
  0.00000000E+00  0.00000000E+00  0.00000000E+00
  0.00000000E+00  0.00000000E+00  0.00000000E+00
  0.00000000E+00  0.00000000E+00  0.00000000E+00
  0.00000000E+00  0.00000000E+00  0.00000000E+00
  0.00000000E+00  0.00000000E+00  0.00000000E+00
  0.00000000E+00  0.00000000E+00  0.00000000E+00
  0.00000000E+00  0.00000000E+00  0.00000000E+00
  0.00000000E+00  0.00000000E+00  0.00000000E+00
  0.00000000E+00  0.00000000E+00  0.00000000E+00
  0.00000000E+00  0.00000000E+00  0.00000000E+00
  0.00000000E+00  0.00000000E+00  0.00000000E+00
  0.00000000E+00  0.00000000E+00  0.00000000E+00
  0.00000000E+00  0.00000000E+00  0.00000000E+00
  0.00000000E+00  0.00000000E+00  0.00000000E+00
  0.00000000E+00  0.00000000E+00  0.00000000E+00
  0.00000000E+00  0.00000000E+00  0.00000000E+00
