Pt111                                   
   1.00000000000000     
    11.2227001190000006    0.0000000000000000    0.0000000000000000
     5.6113500595000003    9.7191434021000003    0.0000000000000000
     0.0000000000000000    0.0000000000000000   22.0000000000000000
   Pt
    80
Direct
  0.7847439678733461  0.8692635995426145  0.3267654084872423
  0.0347364158756983  0.8692930923000636  0.3267480617317411
  0.0347755842302930  0.6192255981275202  0.3267390223349371
  0.7867661534942537  0.8680268265693379  0.0231967806819086
  0.0368919479389609  0.8678462371973477  0.0231874710309389
  0.0368453967439133  0.6179147432189197  0.0231959175547102
  0.6192203141565543  0.2018229559614830  0.1266220702742152
  0.3692500035233537  0.9518102917323331  0.1266420990120710
  0.0347270386790277  0.3692727962471319  0.3267593039344278
  0.0368988856143093  0.3679068351798487  0.0231644148660162
  0.8692284167360582  0.2018754062309218  0.1266046776522057
  0.9519140032068856  0.5356156255602688  0.2266807145708651
  0.2846855610057433  0.1193117630370664  0.3267655798786916
  0.5347643041128521  0.6192559746433769  0.3267094328566587
  0.2846848298032397  0.3693215482138344  0.3267395795859551
  0.2867134439109430  0.1178783162407246  0.0232028651867446
  0.5369603296166181  0.6178929790267724  0.0232169394737408
  0.2868223825402362  0.3678718055398545  0.0231678415676564
  0.6192725325876586  0.9518343334664137  0.1266391045908911
  0.7019818335709582  0.7855804263634708  0.2267047231947453
  0.8692366164814769  0.7018920185600236  0.1266231920476685
  0.6192640794221563  0.4518281930071908  0.1266099330542496
  0.2847108448771650  0.8692793049592704  0.3267505130917147
  0.2868219895943901  0.8678734373089894  0.0232099755192817
  0.6192694511857340  0.7018501839172323  0.1266589110322580
  0.2018842951639302  0.0356567065647809  0.2266906640885414
  0.8674961205663027  0.9529788017397411  0.4301978216594703
  0.1173501622061171  0.4528895878057868  0.4301671869301342
  0.1175038067355108  0.9529261371209331  0.4301644120614877
  0.8673580303766677  0.4530149394420209  0.4301855876313238
  0.3675475495400893  0.9529023542773345  0.4301600747836477
  0.8674685016624031  0.2030063861737637  0.4301978632684942
  0.1174498841092289  0.2028600728083569  0.4301864652513326
  0.6174683566707611  0.9530386069566079  0.4301550817451282
  0.8675904153292650  0.7030107745735921  0.4301819335750560
  0.3674015369179476  0.2030248377351146  0.4301802887418049
  0.3674825582337675  0.7029457738214812  0.4301681622886786
  0.6174164758817154  0.4530500979299306  0.4301352291659722
  0.1174873813506838  0.7029144393636911  0.4301612880209686
  0.6174640306213763  0.2029757088523444  0.4301859389149912
  0.5347588626399931  0.3693152799151819  0.3267385855897350
  0.5368080071513975  0.3679912714696956  0.0231781937886816
  0.5346826724159625  0.1193192303483407  0.3267451450943565
  0.5367715160922063  0.1179288173131274  0.0231966437143530
  0.8692836148321156  0.4518138867074006  0.1265991947084283
  0.1192022351209813  0.4518538372951305  0.1265953013624653
  0.0347110381803239  0.1192416312537175  0.3267488015939464
  0.0367780741764117  0.1178723135876665  0.0231784843554698
  0.1192370535848146  0.9518245644584694  0.1266125787452308
  0.3674613320646132  0.4528835904272429  0.4301719497683636
  0.4519227893827745  0.5355908443090112  0.2266574554794729
  0.6174803327090639  0.7030149193365599  0.4301360262734191
  0.3692160309914715  0.2018477710440897  0.1265873121801412
  0.1191632326535592  0.2018566360346175  0.1266006265993053
  0.9519371746155125  0.7856337042869437  0.2266821965673665
  0.7847583900829850  0.6193031090547513  0.3267686103556142
  0.2847436171398784  0.6192847319038240  0.3267435469296250
  0.7869175425948415  0.6179275954927328  0.0232235548862364
  0.2868712143660906  0.6178719050865932  0.0232146957775185
  0.3693138263254852  0.7018321168197611  0.1266345708999972
  0.3692371838763533  0.4517806892473852  0.1266130913779444
  0.2019271533657676  0.2855985380261551  0.2266701610825298
  0.7847408443677113  0.3693066138533529  0.3267371523498986
  0.7868676610508683  0.3678957214958593  0.0231721892869845
  0.9518797982299321  0.0356636039762535  0.2266812732112265
  0.4518862856526656  0.7856557741059352  0.2267056954340892
  0.7020031826116567  0.5355721000196729  0.2266837032722392
  0.2019179236654998  0.7856034836006868  0.2266805816562318
  0.4518616201023876  0.0356969990292797  0.2266689041278924
  0.1192497333827312  0.7018315293189404  0.1266179341407445
  0.7019677252619375  0.0356003346356941  0.2267196046881673
  0.7847087683677824  0.1193215525786705  0.3267897999958477
  0.5347267033502139  0.8693370253605217  0.3267257542859841
  0.7867852846693697  0.1179510297710969  0.0231930954870604
  0.5368007196048095  0.8679327670357938  0.0232357220462325
  0.2019048498841724  0.5356127033173982  0.2266763739443488
  0.9519538158969745  0.2856221719575062  0.2266741332786888
  0.8692965579004492  0.9518247268578740  0.1266185844419316
  0.7019864068518644  0.2855475144255141  0.2266756750507939
  0.4519125026388015  0.2856199269240463  0.2266746108328465
 
  0.00000000E+00  0.00000000E+00  0.00000000E+00
  0.00000000E+00  0.00000000E+00  0.00000000E+00
  0.00000000E+00  0.00000000E+00  0.00000000E+00
  0.00000000E+00  0.00000000E+00  0.00000000E+00
  0.00000000E+00  0.00000000E+00  0.00000000E+00
  0.00000000E+00  0.00000000E+00  0.00000000E+00
  0.00000000E+00  0.00000000E+00  0.00000000E+00
  0.00000000E+00  0.00000000E+00  0.00000000E+00
  0.00000000E+00  0.00000000E+00  0.00000000E+00
  0.00000000E+00  0.00000000E+00  0.00000000E+00
  0.00000000E+00  0.00000000E+00  0.00000000E+00
  0.00000000E+00  0.00000000E+00  0.00000000E+00
  0.00000000E+00  0.00000000E+00  0.00000000E+00
  0.00000000E+00  0.00000000E+00  0.00000000E+00
  0.00000000E+00  0.00000000E+00  0.00000000E+00
  0.00000000E+00  0.00000000E+00  0.00000000E+00
  0.00000000E+00  0.00000000E+00  0.00000000E+00
  0.00000000E+00  0.00000000E+00  0.00000000E+00
  0.00000000E+00  0.00000000E+00  0.00000000E+00
  0.00000000E+00  0.00000000E+00  0.00000000E+00
  0.00000000E+00  0.00000000E+00  0.00000000E+00
  0.00000000E+00  0.00000000E+00  0.00000000E+00
  0.00000000E+00  0.00000000E+00  0.00000000E+00
  0.00000000E+00  0.00000000E+00  0.00000000E+00
  0.00000000E+00  0.00000000E+00  0.00000000E+00
  0.00000000E+00  0.00000000E+00  0.00000000E+00
  0.00000000E+00  0.00000000E+00  0.00000000E+00
  0.00000000E+00  0.00000000E+00  0.00000000E+00
  0.00000000E+00  0.00000000E+00  0.00000000E+00
  0.00000000E+00  0.00000000E+00  0.00000000E+00
  0.00000000E+00  0.00000000E+00  0.00000000E+00
  0.00000000E+00  0.00000000E+00  0.00000000E+00
  0.00000000E+00  0.00000000E+00  0.00000000E+00
  0.00000000E+00  0.00000000E+00  0.00000000E+00
  0.00000000E+00  0.00000000E+00  0.00000000E+00
  0.00000000E+00  0.00000000E+00  0.00000000E+00
  0.00000000E+00  0.00000000E+00  0.00000000E+00
  0.00000000E+00  0.00000000E+00  0.00000000E+00
  0.00000000E+00  0.00000000E+00  0.00000000E+00
  0.00000000E+00  0.00000000E+00  0.00000000E+00
  0.00000000E+00  0.00000000E+00  0.00000000E+00
  0.00000000E+00  0.00000000E+00  0.00000000E+00
  0.00000000E+00  0.00000000E+00  0.00000000E+00
  0.00000000E+00  0.00000000E+00  0.00000000E+00
  0.00000000E+00  0.00000000E+00  0.00000000E+00
  0.00000000E+00  0.00000000E+00  0.00000000E+00
  0.00000000E+00  0.00000000E+00  0.00000000E+00
  0.00000000E+00  0.00000000E+00  0.00000000E+00
  0.00000000E+00  0.00000000E+00  0.00000000E+00
  0.00000000E+00  0.00000000E+00  0.00000000E+00
  0.00000000E+00  0.00000000E+00  0.00000000E+00
  0.00000000E+00  0.00000000E+00  0.00000000E+00
  0.00000000E+00  0.00000000E+00  0.00000000E+00
  0.00000000E+00  0.00000000E+00  0.00000000E+00
  0.00000000E+00  0.00000000E+00  0.00000000E+00
  0.00000000E+00  0.00000000E+00  0.00000000E+00
  0.00000000E+00  0.00000000E+00  0.00000000E+00
  0.00000000E+00  0.00000000E+00  0.00000000E+00
  0.00000000E+00  0.00000000E+00  0.00000000E+00
  0.00000000E+00  0.00000000E+00  0.00000000E+00
  0.00000000E+00  0.00000000E+00  0.00000000E+00
  0.00000000E+00  0.00000000E+00  0.00000000E+00
  0.00000000E+00  0.00000000E+00  0.00000000E+00
  0.00000000E+00  0.00000000E+00  0.00000000E+00
  0.00000000E+00  0.00000000E+00  0.00000000E+00
  0.00000000E+00  0.00000000E+00  0.00000000E+00
  0.00000000E+00  0.00000000E+00  0.00000000E+00
  0.00000000E+00  0.00000000E+00  0.00000000E+00
  0.00000000E+00  0.00000000E+00  0.00000000E+00
  0.00000000E+00  0.00000000E+00  0.00000000E+00
  0.00000000E+00  0.00000000E+00  0.00000000E+00
  0.00000000E+00  0.00000000E+00  0.00000000E+00
  0.00000000E+00  0.00000000E+00  0.00000000E+00
  0.00000000E+00  0.00000000E+00  0.00000000E+00
  0.00000000E+00  0.00000000E+00  0.00000000E+00
  0.00000000E+00  0.00000000E+00  0.00000000E+00
  0.00000000E+00  0.00000000E+00  0.00000000E+00
  0.00000000E+00  0.00000000E+00  0.00000000E+00
  0.00000000E+00  0.00000000E+00  0.00000000E+00
  0.00000000E+00  0.00000000E+00  0.00000000E+00
