PtM\(2)                                 
   1.00000000000000     
    10.5600004195999997    0.0000000000000000    0.0000000000000000
     5.2800002097999998    9.1452286273999999    0.0000000000000000
     0.0000000000000000    0.0000000000000000   22.0000000000000000
   Fe   Pt   H 
    64    16     1
Selective dynamics
Direct
  0.7903729086711763  0.8762798730653671  0.3099131515434191   T   T   T
  0.0410077526555164  0.8720006194226022  0.3174497867330629   T   T   T
  0.0426072373086056  0.6208348207774428  0.3150160124310488   T   T   T
  0.8026267767292836  0.8615467289022831  0.0454892451863671   F   F   F
  0.0404195207448552  0.8617027190320172  0.0531321522045474   F   F   F
  0.0509400554688710  0.6062387638608655  0.0434550926181814   F   F   F
  0.6179624315601515  0.2089407032181825  0.1354205681000025   F   F   F
  0.3771081362849742  0.9520552039687331  0.1315154562954532   F   F   F
  0.0385513541571812  0.3717786302379166  0.3161300261445244   T   T   T
  0.0513505762289554  0.3533140917898123  0.0488741219272697   F   F   F
  0.8796363959013576  0.1964455081765166  0.1405242804454545   F   F   F
  0.9688359178473410  0.5312027758884607  0.2239259729165920   T   T   T
  0.2812758743031135  0.1327856648106013  0.3154561489536202   T   T   T
  0.5219165577025791  0.6243508046548542  0.3106306290179325   T   T   T
  0.2884836817753973  0.3727054809394599  0.3169095060579268   T   T   T
  0.2893256628225913  0.1234214636929067  0.0441537578181794   F   F   F
  0.5276420206625545  0.6272430854941717  0.0450746674136369   F   F   F
  0.2890943956913929  0.3689426548277837  0.0479302053681820   F   F   F
  0.6230886774246684  0.9589308993681485  0.1313536480500019   F   F   F
  0.7084754456529139  0.7886318786781968  0.2181580278005456   T   T   T
  0.8871502961281266  0.6953355374350920  0.1350361609363659   F   F   F
  0.6200488592634272  0.4538069531433777  0.1336872440681844   F   F   F
  0.2774401249285104  0.8769952284781555  0.3151356915838277   T   T   T
  0.2687421993710117  0.8846374397312431  0.0464864681272701   F   F   F
  0.6288621109649597  0.6995904720010202  0.1284261861000005   F   F   F
  0.2140030389479504  0.0348685035728803  0.2267027839724054   T   T   T
  0.5364826338769375  0.3675683934334958  0.3170728266611887   T   T   T
  0.5412157973262453  0.3693050226629708  0.0442518416318194   F   F   F
  0.5331471560356548  0.1291699636866124  0.3143760784501447   T   T   T
  0.5336944517523747  0.1355867285247427  0.0439851245909111   F   F   F
  0.8832888313795024  0.4470977980309314  0.1381582713954543   F   F   F
  0.1402232285351914  0.4469540011666240  0.1355590908681847   F   F   F
  0.0361087250205724  0.1249136073157634  0.3183289966638279   T   T   T
  0.0589967396284408  0.1018350567431128  0.0575243016954516   F   F   F
  0.1342935333655149  0.9375821956829213  0.1424705955181835   F   F   F
  0.4585775049776734  0.5251341773240839  0.2229124342713026   T   T   T
  0.3693613645044209  0.2161502974433560  0.1347813253954513   F   F   F
  0.1352238459015780  0.1985163722709657  0.1393178312181789   F   F   F
  0.9691130723970347  0.7795724805502073  0.2239921460603647   T   T   T
  0.7862788643074747  0.6201784841453002  0.3077144994974036   T   T   T
  0.2886572542961116  0.6152791406109993  0.3194708218614695   T   T   T
  0.8136378082480036  0.6035846078535201  0.0458125345909082   F   F   F
  0.2827328526180111  0.6136847731378765  0.0419772135318155   F   F   F
  0.3711045115008886  0.6919720544809493  0.1297637648999981   F   F   F
  0.3650899884529792  0.4537245194798061  0.1335287959590943   F   F   F
  0.2172108461948341  0.2957887615479913  0.2239936754922933   T   T   T
  0.7860315933332507  0.3701194119124425  0.3145378679311351   T   T   T
  0.7955667169556051  0.3623786591480993  0.0525784573590897   F   F   F
  0.9576469267920288  0.0357422096626958  0.2291157329349432   T   T   T
  0.4549433584259927  0.7832437165051156  0.2174105952394702   T   T   T
  0.7062427484373338  0.5322701163050900  0.2209855131760689   T   T   T
  0.2165730698444999  0.7716523394304942  0.2264947248494875   T   T   T
  0.4525849984326484  0.0485566809319372  0.2192946772259395   T   T   T
  0.1365430804763790  0.6811498989906610  0.1363537004090887   F   F   F
  0.7024764066400967  0.0463362975456278  0.2234218772326081   T   T   T
  0.7871289141864685  0.1249518848119907  0.3167808277869716   T   T   T
  0.5235633438177369  0.8823397871613943  0.3063443762228217   T   T   T
  0.7932310882983060  0.1130335594347969  0.0506874096272725   F   F   F
  0.5386045560987753  0.8807280389435022  0.0462069311772737   F   F   F
  0.2179223064931002  0.5229707037278974  0.2237115033188108   T   T   T
  0.9606382146144957  0.2849843094007860  0.2264104610910207   T   T   T
  0.8774744330611171  0.9478040731130761  0.1404896949318157   F   F   F
  0.6961404916787083  0.2887805473613855  0.2239936284469936   T   T   T
  0.4484290428179328  0.2955101795176516  0.2222738571535620   T   T   T
  0.8683396372602810  0.9569329462368928  0.4122566046720818   T   T   T
  0.1169138822202196  0.4570428525563562  0.4131957812616217   T   T   T
  0.1170982342466666  0.9596605086185019  0.4152749459435677   T   T   T
  0.8668175082091362  0.4592826286200025  0.4098355465948729   T   T   T
  0.3683985324105873  0.9572382645163933  0.4090907776864697   T   T   T
  0.8677141304594975  0.2077499885751952  0.4143133691678119   T   T   T
  0.1180502345469734  0.2080500223938629  0.4143354101151515   T   T   T
  0.6182772486902056  0.9563762065351936  0.4064368397397752   T   T   T
  0.8678473824731170  0.7072544500718528  0.4070124474313763   T   T   T
  0.3692525540212815  0.2069388527347188  0.4131097060917326   T   T   T
  0.3681749784312511  0.7101714400843261  0.4165869840698908   T   T   T
  0.6201450197597793  0.4570875087375701  0.4098451854870317   T   T   T
  0.1155874080193518  0.7078407182035186  0.4137211366976573   T   T   T
  0.6195510848565472  0.2049740398198955  0.4135980903078317   T   T   T
  0.3689650278192275  0.4533955653738884  0.4201690845204269   T   T   T
  0.6172567692953650  0.7089276482273542  0.4026841798920074   T   T   T
  0.3634719335723026  0.5879311377595587  0.4691591847398858   T   T   T
 
  0.00000000E+00  0.00000000E+00  0.00000000E+00
  0.00000000E+00  0.00000000E+00  0.00000000E+00
  0.00000000E+00  0.00000000E+00  0.00000000E+00
  0.00000000E+00  0.00000000E+00  0.00000000E+00
  0.00000000E+00  0.00000000E+00  0.00000000E+00
  0.00000000E+00  0.00000000E+00  0.00000000E+00
  0.00000000E+00  0.00000000E+00  0.00000000E+00
  0.00000000E+00  0.00000000E+00  0.00000000E+00
  0.00000000E+00  0.00000000E+00  0.00000000E+00
  0.00000000E+00  0.00000000E+00  0.00000000E+00
  0.00000000E+00  0.00000000E+00  0.00000000E+00
  0.00000000E+00  0.00000000E+00  0.00000000E+00
  0.00000000E+00  0.00000000E+00  0.00000000E+00
  0.00000000E+00  0.00000000E+00  0.00000000E+00
  0.00000000E+00  0.00000000E+00  0.00000000E+00
  0.00000000E+00  0.00000000E+00  0.00000000E+00
  0.00000000E+00  0.00000000E+00  0.00000000E+00
  0.00000000E+00  0.00000000E+00  0.00000000E+00
  0.00000000E+00  0.00000000E+00  0.00000000E+00
  0.00000000E+00  0.00000000E+00  0.00000000E+00
  0.00000000E+00  0.00000000E+00  0.00000000E+00
  0.00000000E+00  0.00000000E+00  0.00000000E+00
  0.00000000E+00  0.00000000E+00  0.00000000E+00
  0.00000000E+00  0.00000000E+00  0.00000000E+00
  0.00000000E+00  0.00000000E+00  0.00000000E+00
  0.00000000E+00  0.00000000E+00  0.00000000E+00
  0.00000000E+00  0.00000000E+00  0.00000000E+00
  0.00000000E+00  0.00000000E+00  0.00000000E+00
  0.00000000E+00  0.00000000E+00  0.00000000E+00
  0.00000000E+00  0.00000000E+00  0.00000000E+00
  0.00000000E+00  0.00000000E+00  0.00000000E+00
  0.00000000E+00  0.00000000E+00  0.00000000E+00
  0.00000000E+00  0.00000000E+00  0.00000000E+00
  0.00000000E+00  0.00000000E+00  0.00000000E+00
  0.00000000E+00  0.00000000E+00  0.00000000E+00
  0.00000000E+00  0.00000000E+00  0.00000000E+00
  0.00000000E+00  0.00000000E+00  0.00000000E+00
  0.00000000E+00  0.00000000E+00  0.00000000E+00
  0.00000000E+00  0.00000000E+00  0.00000000E+00
  0.00000000E+00  0.00000000E+00  0.00000000E+00
  0.00000000E+00  0.00000000E+00  0.00000000E+00
  0.00000000E+00  0.00000000E+00  0.00000000E+00
  0.00000000E+00  0.00000000E+00  0.00000000E+00
  0.00000000E+00  0.00000000E+00  0.00000000E+00
  0.00000000E+00  0.00000000E+00  0.00000000E+00
  0.00000000E+00  0.00000000E+00  0.00000000E+00
  0.00000000E+00  0.00000000E+00  0.00000000E+00
  0.00000000E+00  0.00000000E+00  0.00000000E+00
  0.00000000E+00  0.00000000E+00  0.00000000E+00
  0.00000000E+00  0.00000000E+00  0.00000000E+00
  0.00000000E+00  0.00000000E+00  0.00000000E+00
  0.00000000E+00  0.00000000E+00  0.00000000E+00
  0.00000000E+00  0.00000000E+00  0.00000000E+00
  0.00000000E+00  0.00000000E+00  0.00000000E+00
  0.00000000E+00  0.00000000E+00  0.00000000E+00
  0.00000000E+00  0.00000000E+00  0.00000000E+00
  0.00000000E+00  0.00000000E+00  0.00000000E+00
  0.00000000E+00  0.00000000E+00  0.00000000E+00
  0.00000000E+00  0.00000000E+00  0.00000000E+00
  0.00000000E+00  0.00000000E+00  0.00000000E+00
  0.00000000E+00  0.00000000E+00  0.00000000E+00
  0.00000000E+00  0.00000000E+00  0.00000000E+00
  0.00000000E+00  0.00000000E+00  0.00000000E+00
  0.00000000E+00  0.00000000E+00  0.00000000E+00
  0.00000000E+00  0.00000000E+00  0.00000000E+00
  0.00000000E+00  0.00000000E+00  0.00000000E+00
  0.00000000E+00  0.00000000E+00  0.00000000E+00
  0.00000000E+00  0.00000000E+00  0.00000000E+00
  0.00000000E+00  0.00000000E+00  0.00000000E+00
  0.00000000E+00  0.00000000E+00  0.00000000E+00
  0.00000000E+00  0.00000000E+00  0.00000000E+00
  0.00000000E+00  0.00000000E+00  0.00000000E+00
  0.00000000E+00  0.00000000E+00  0.00000000E+00
  0.00000000E+00  0.00000000E+00  0.00000000E+00
  0.00000000E+00  0.00000000E+00  0.00000000E+00
  0.00000000E+00  0.00000000E+00  0.00000000E+00
  0.00000000E+00  0.00000000E+00  0.00000000E+00
  0.00000000E+00  0.00000000E+00  0.00000000E+00
  0.00000000E+00  0.00000000E+00  0.00000000E+00
  0.00000000E+00  0.00000000E+00  0.00000000E+00
  0.00000000E+00  0.00000000E+00  0.00000000E+00
