10.56                                   
   1.00000000000000     
    10.5600004195999997    0.0000000000000000    0.0000000000000000
     5.2800002097999998    9.1452286273999999    0.0000000000000000
     0.0000000000000000    0.0000000000000000   22.0000000000000000
   Pt   Fe   Co   Cu   Ni
    32    13    10    13    12
Direct
  0.7873498800922472  0.8782891381945872  0.3176649124112187
  0.0434059405333173  0.8816224762272293  0.3161696620269204
  0.2802612646386142  0.3798997991703689  0.3202425453184458
  0.8747845484317522  0.9614325904747530  0.4226092265660293
  0.1228131557080964  0.4612259084226649  0.4270248873231023
  0.1258010743369733  0.9606979217922657  0.4210963744901809
  0.8745322169173354  0.4598120684617946  0.4256814771086544
  0.3752729319669676  0.9592596693517500  0.4195539158701903
  0.8749712344982004  0.2107662034980490  0.4205750836034104
  0.1256737331874955  0.2102221056125778  0.4218379550489206
  0.6247553440846875  0.9601775445101397  0.4225401596424289
  0.8747879277302048  0.7102002860834407  0.4253954107672878
  0.3749524458079561  0.2086597118820134  0.4240598368510524
  0.3761123442214077  0.7111793949021397  0.4226784001717216
  0.6258523706536822  0.4605074905831008  0.4221673455273558
  0.1248695254032287  0.7108015230622871  0.4251475990733358
  0.6255639108619355  0.2102497021922419  0.4214856877104678
  0.5478654523184405  0.3759224900250946  0.3175346809988168
  0.5350218932967871  0.1241751388641018  0.3148306256217341
  0.5451866810590547  0.1241248117401124  0.0402686787786956
  0.1205155376467867  0.4611072019613572  0.1278810875243958
  0.0426656487845760  0.1367654269021281  0.3143244423692257
  0.0404789290745655  0.1314342145248109  0.0332419078228992
  0.1295332380224632  0.9590318940416761  0.1322602480108374
  0.3747281226918308  0.4607798104862103  0.4259665274328976
  0.4550398060346642  0.5456894385579114  0.2186157297982934
  0.6233455985400215  0.7106679066750077  0.4227524295840122
  0.9568443004969885  0.7895096230597942  0.2210528947417739
  0.7955497496754376  0.6218315205747811  0.3189969633379792
  0.2920209301026483  0.6307932274080847  0.3180365165055986
  0.2021842715642572  0.2811137611104950  0.2257854090423036
  0.7068632418354210  0.5487909638055699  0.2207997665260809
  0.0411048539436738  0.6303250637127056  0.3260825739466908
  0.7952353869318628  0.8624100594381626  0.0423511765267475
  0.0553490232881788  0.8667071337595050  0.0381631589500835
  0.0459928572490206  0.6294345074023603  0.0367840819193225
  0.6259906609833468  0.2221525935363225  0.1293222225410966
  0.3818418578776236  0.9549522688308698  0.1302534502815878
  0.0360670945878110  0.3827853278159015  0.3255130659620476
  0.0299747035728276  0.3830083172754289  0.0374673156006324
  0.8708195143007939  0.2158137328313521  0.1286452085180537
  0.9543789978499360  0.5451285235438134  0.2232835604420539
  0.2953740018153487  0.1173155145965591  0.3224949187705367
  0.5417151467660474  0.6285397355384047  0.3228532100320428
  0.2932179136043448  0.1207551971020911  0.0401101978986988
  0.5474127321315470  0.6263697623407426  0.0437634403371901
  0.2953446466693354  0.3803224064457134  0.0388807235383057
  0.6248334623556544  0.9502242302925979  0.1326393559656240
  0.7065379058182318  0.7941539363754125  0.2201661474282555
  0.8657538164661727  0.7060794712308255  0.1288292027171676
  0.6256996446139137  0.4605881090655048  0.1268225599474565
  0.2973395692955150  0.8767440382703561  0.3188416263516118
  0.3041555748123106  0.8693489740728888  0.0407362563023656
  0.6267854744102977  0.7143191353627414  0.1284202303848607
  0.2239381033442313  0.0291945211189410  0.2273443115176337
  0.5422955428704263  0.3807947983819375  0.0347970888603333
  0.3772990190285132  0.2055821575298846  0.1329689117196902
  0.1361172803814760  0.7053400752403900  0.1318076706473051
  0.7053042645922245  0.0499687489673729  0.2207182402179614
  0.7928639009313752  0.1296561929249372  0.3178933253500612
  0.5382731672980814  0.8729927138551036  0.3173700240728711
  0.7947873548658499  0.1234344245474900  0.0346597583389545
  0.5442576710547200  0.8715527221015390  0.0363074216844122
  0.2076654316676156  0.5420645972875342  0.2242435621406247
  0.9511256627631860  0.2968645176096219  0.2215976149428963
  0.8708485781252882  0.9641527038661299  0.1291613754850951
  0.7144967758885936  0.2894390593630206  0.2238553061032053
  0.4567611274096627  0.2920816967130713  0.2211141780399599
  0.8751393121076424  0.4572041164080135  0.1277352414329159
  0.1256894589740350  0.2087345384521735  0.1290767369981503
  0.7912533636109782  0.6233086762075373  0.0402700051880342
  0.2977050765177790  0.6261579956789386  0.0422808085392160
  0.3848731115496941  0.7124121488855344  0.1290008871554796
  0.3814406475740529  0.4518093202875139  0.1266045179605210
  0.7927755992822390  0.3796351472332585  0.3219155602441265
  0.7901303590273411  0.3779409632188800  0.0393657251427272
  0.9551380352845084  0.0522999828060896  0.2218706470625099
  0.4581440220157630  0.7967046594399114  0.2250026109581544
  0.2138679220730929  0.7983337088370255  0.2247323879831053
  0.4618718621998262  0.0308398270393945  0.2222940752454074
 
  0.00000000E+00  0.00000000E+00  0.00000000E+00
  0.00000000E+00  0.00000000E+00  0.00000000E+00
  0.00000000E+00  0.00000000E+00  0.00000000E+00
  0.00000000E+00  0.00000000E+00  0.00000000E+00
  0.00000000E+00  0.00000000E+00  0.00000000E+00
  0.00000000E+00  0.00000000E+00  0.00000000E+00
  0.00000000E+00  0.00000000E+00  0.00000000E+00
  0.00000000E+00  0.00000000E+00  0.00000000E+00
  0.00000000E+00  0.00000000E+00  0.00000000E+00
  0.00000000E+00  0.00000000E+00  0.00000000E+00
  0.00000000E+00  0.00000000E+00  0.00000000E+00
  0.00000000E+00  0.00000000E+00  0.00000000E+00
  0.00000000E+00  0.00000000E+00  0.00000000E+00
  0.00000000E+00  0.00000000E+00  0.00000000E+00
  0.00000000E+00  0.00000000E+00  0.00000000E+00
  0.00000000E+00  0.00000000E+00  0.00000000E+00
  0.00000000E+00  0.00000000E+00  0.00000000E+00
  0.00000000E+00  0.00000000E+00  0.00000000E+00
  0.00000000E+00  0.00000000E+00  0.00000000E+00
  0.00000000E+00  0.00000000E+00  0.00000000E+00
  0.00000000E+00  0.00000000E+00  0.00000000E+00
  0.00000000E+00  0.00000000E+00  0.00000000E+00
  0.00000000E+00  0.00000000E+00  0.00000000E+00
  0.00000000E+00  0.00000000E+00  0.00000000E+00
  0.00000000E+00  0.00000000E+00  0.00000000E+00
  0.00000000E+00  0.00000000E+00  0.00000000E+00
  0.00000000E+00  0.00000000E+00  0.00000000E+00
  0.00000000E+00  0.00000000E+00  0.00000000E+00
  0.00000000E+00  0.00000000E+00  0.00000000E+00
  0.00000000E+00  0.00000000E+00  0.00000000E+00
  0.00000000E+00  0.00000000E+00  0.00000000E+00
  0.00000000E+00  0.00000000E+00  0.00000000E+00
  0.00000000E+00  0.00000000E+00  0.00000000E+00
  0.00000000E+00  0.00000000E+00  0.00000000E+00
  0.00000000E+00  0.00000000E+00  0.00000000E+00
  0.00000000E+00  0.00000000E+00  0.00000000E+00
  0.00000000E+00  0.00000000E+00  0.00000000E+00
  0.00000000E+00  0.00000000E+00  0.00000000E+00
  0.00000000E+00  0.00000000E+00  0.00000000E+00
  0.00000000E+00  0.00000000E+00  0.00000000E+00
  0.00000000E+00  0.00000000E+00  0.00000000E+00
  0.00000000E+00  0.00000000E+00  0.00000000E+00
  0.00000000E+00  0.00000000E+00  0.00000000E+00
  0.00000000E+00  0.00000000E+00  0.00000000E+00
  0.00000000E+00  0.00000000E+00  0.00000000E+00
  0.00000000E+00  0.00000000E+00  0.00000000E+00
  0.00000000E+00  0.00000000E+00  0.00000000E+00
  0.00000000E+00  0.00000000E+00  0.00000000E+00
  0.00000000E+00  0.00000000E+00  0.00000000E+00
  0.00000000E+00  0.00000000E+00  0.00000000E+00
  0.00000000E+00  0.00000000E+00  0.00000000E+00
  0.00000000E+00  0.00000000E+00  0.00000000E+00
  0.00000000E+00  0.00000000E+00  0.00000000E+00
  0.00000000E+00  0.00000000E+00  0.00000000E+00
  0.00000000E+00  0.00000000E+00  0.00000000E+00
  0.00000000E+00  0.00000000E+00  0.00000000E+00
  0.00000000E+00  0.00000000E+00  0.00000000E+00
  0.00000000E+00  0.00000000E+00  0.00000000E+00
  0.00000000E+00  0.00000000E+00  0.00000000E+00
  0.00000000E+00  0.00000000E+00  0.00000000E+00
  0.00000000E+00  0.00000000E+00  0.00000000E+00
  0.00000000E+00  0.00000000E+00  0.00000000E+00
  0.00000000E+00  0.00000000E+00  0.00000000E+00
  0.00000000E+00  0.00000000E+00  0.00000000E+00
  0.00000000E+00  0.00000000E+00  0.00000000E+00
  0.00000000E+00  0.00000000E+00  0.00000000E+00
  0.00000000E+00  0.00000000E+00  0.00000000E+00
  0.00000000E+00  0.00000000E+00  0.00000000E+00
  0.00000000E+00  0.00000000E+00  0.00000000E+00
  0.00000000E+00  0.00000000E+00  0.00000000E+00
  0.00000000E+00  0.00000000E+00  0.00000000E+00
  0.00000000E+00  0.00000000E+00  0.00000000E+00
  0.00000000E+00  0.00000000E+00  0.00000000E+00
  0.00000000E+00  0.00000000E+00  0.00000000E+00
  0.00000000E+00  0.00000000E+00  0.00000000E+00
  0.00000000E+00  0.00000000E+00  0.00000000E+00
  0.00000000E+00  0.00000000E+00  0.00000000E+00
  0.00000000E+00  0.00000000E+00  0.00000000E+00
  0.00000000E+00  0.00000000E+00  0.00000000E+00
  0.00000000E+00  0.00000000E+00  0.00000000E+00
