Pt111                                   
   1.00000000000000     
    10.9600000059999996    0.0000000000000000    0.0000000000000000
     5.4800000300000002    9.4916384585000007    0.0000000000000000
     0.0000000000000000    0.0000000000000000   22.0000000000000000
   Pt   H 
    80     1
Selective dynamics
Direct
  0.7847992429142181  0.8693016576286396  0.3299504702718181   T   T   T
  0.0346019300779901  0.8696417916885153  0.3296444264182696   T   T   T
  0.0348790244299906  0.6193473596814698  0.3297733251442097   T   T   T
  0.7871262532952485  0.8676518609729555  0.0175705019727275   F   F   F
  0.0365686021135900  0.8682827512166327  0.0176810409545425   F   F   F
  0.0371157800953696  0.6177982316054909  0.0178044132999986   F   F   F
  0.6193770254903512  0.2017362565980605  0.1233705105272733   F   F   F
  0.3693255820862689  0.9517875387162249  0.1233977878318200   F   F   F
  0.0347158991834178  0.3694778805999874  0.3298888485379763   T   T   T
  0.0368182396773449  0.3676614769681734  0.0178421158227238   F   F   F
  0.8693255546713345  0.2018245932539173  0.1233170256818212   F   F   F
  0.9521092114940330  0.5356057435617316  0.2266590246679883   T   T   T
  0.2845432193067126  0.1198159399058341  0.3298189588506162   T   T   T
  0.5342914538672545  0.6194958449055648  0.3305047998066257   T   T   T
  0.2851623818233548  0.3699204908548523  0.3302600180356805   T   T   T
  0.2872128547457962  0.1176959981445123  0.0177676359681840   F   F   F
  0.5367315615137613  0.6179303911589216  0.0177242445954562   F   F   F
  0.2867157965510287  0.3680652439486281  0.0178471869227295   F   F   F
  0.6193413903194696  0.9517678995674288  0.1233260428863616   F   F   F
  0.7020362987945603  0.7856616327076011  0.2265381881964430   T   T   T
  0.8692591142949553  0.7018352475103384  0.1234163191909090   F   F   F
  0.6193852725550784  0.4518040581981566  0.1233923820318168   F   F   F
  0.2849293453003341  0.8690419198730126  0.3300248238749077   T   T   T
  0.2869634377139860  0.8676794065333056  0.0177295031954543   F   F   F
  0.6193152036057583  0.7018195042537201  0.1233357968227295   F   F   F
  0.2020205519127529  0.0357864839754782  0.2265627778730206   T   T   T
  0.8674140596081230  0.9536350830074554  0.4356908559064578   T   T   T
  0.1171176777481477  0.4535595101773779  0.4356285711408248   T   T   T
  0.1165654979549942  0.9543769538181550  0.4352648872490121   T   T   T
  0.8677206084011573  0.4535327509291847  0.4355346031227043   T   T   T
  0.3673641312776468  0.9543376314987029  0.4352547856613711   T   T   T
  0.8673059270277435  0.2032700641259382  0.4354646093684167   T   T   T
  0.1172729001106845  0.2036305174423632  0.4354743952050057   T   T   T
  0.6170945445520317  0.9536664875324234  0.4356577800276966   T   T   T
  0.8676692485342699  0.7028845751450490  0.4356684428633102   T   T   T
  0.3676773354474676  0.2033201971150760  0.4355288468911951   T   T   T
  0.3647507196805719  0.7085704267144095  0.4375554260277852   T   T   T
  0.6212286797449309  0.4519576946283053  0.4376314335672191   T   T   T
  0.1148933987846661  0.7049340363165584  0.4351352589114583   T   T   T
  0.6184403836316861  0.2014524906834794  0.4352326032315261   T   T   T
  0.5344597554531347  0.3700048264017326  0.3306020523596445   T   T   T
  0.5373605491707139  0.3675441637661478  0.0177014946454577   F   F   F
  0.5346646748127668  0.1195617046232087  0.3297546862419836   T   T   T
  0.5368502505630701  0.1179870096292106  0.0176395756863670   F   F   F
  0.8692850783751567  0.4518704855176097  0.1234823188227239   F   F   F
  0.1193480072535920  0.4517884556443263  0.1235586076681798   F   F   F
  0.0345207839449628  0.1198235119415330  0.3297725302031722   T   T   T
  0.0370496372583276  0.1177162597253627  0.0176322235318196   F   F   F
  0.1193360579660450  0.9517973685259520  0.1234471498727245   F   F   F
  0.3651421589460924  0.4520742064525791  0.4376199581093871   T   T   T
  0.4521064669883330  0.5356042432552002  0.2270009991298778   T   T   T
  0.6184606948125051  0.7049321600988989  0.4350249367390475   T   T   T
  0.3693034247322373  0.2018564972925461  0.1235070294999971   F   F   F
  0.1193915680998785  0.2017082400652868  0.1234534575863648   F   F   F
  0.9520992215556134  0.7856389753793351  0.2265955974412677   T   T   T
  0.7847019537103321  0.6193817515893585  0.3296961053355716   T   T   T
  0.2850641990841183  0.6195161538022376  0.3305433310037671   T   T   T
  0.7868311899066072  0.6180357900112270  0.0176707095090904   F   F   F
  0.2869762919410803  0.6177635427684294  0.0177778366772756   F   F   F
  0.3692206563263127  0.7018148911302617  0.1234805236045489   F   F   F
  0.3694185980490303  0.4518351368998239  0.1234685466863610   F   F   F
  0.2020398134319521  0.2856307913357199  0.2266680485290564   T   T   T
  0.7838174678911827  0.3699283502128878  0.3301919745555679   T   T   T
  0.7870004818535818  0.3680513243286825  0.0176074950090879   F   F   F
  0.9520270818652534  0.0356832990942806  0.2265459837229997   T   T   T
  0.4520023156258901  0.7855603649238461  0.2266448341829275   T   T   T
  0.7018615077468979  0.5355970309963070  0.2266755213884508   T   T   T
  0.2022364051996206  0.7855697306135312  0.2267185948405128   T   T   T
  0.4520694024877088  0.0356756832891634  0.2265666386783138   T   T   T
  0.1193391691950794  0.7018779650455400  0.1234559250681784   F   F   F
  0.7020906467731223  0.0355596435814434  0.2265731136547160   T   T   T
  0.7846817950302665  0.1195485178537794  0.3297176144911163   T   T   T
  0.5346325142159571  0.8696227672380772  0.3295671017149644   T   T   T
  0.7868537854459206  0.1178772241159294  0.0175177445818164   F   F   F
  0.5370722511533614  0.8679527297441894  0.0175638524272728   F   F   F
  0.2023394470706492  0.5355844339904934  0.2267415267422308   T   T   T
  0.9521242323591679  0.2856270245869084  0.2265701983896022   T   T   T
  0.8691734336427359  0.9518856255116788  0.1233850648045447   F   F   F
  0.7019629540218801  0.2858217307389097  0.2266744159394065   T   T   T
  0.4520679167595389  0.2858420779981543  0.2267461881077821   T   T   T
  0.4503479381359341  0.5402081400730339  0.4789359392264814   T   T   T
 
  0.00000000E+00  0.00000000E+00  0.00000000E+00
  0.00000000E+00  0.00000000E+00  0.00000000E+00
  0.00000000E+00  0.00000000E+00  0.00000000E+00
  0.00000000E+00  0.00000000E+00  0.00000000E+00
  0.00000000E+00  0.00000000E+00  0.00000000E+00
  0.00000000E+00  0.00000000E+00  0.00000000E+00
  0.00000000E+00  0.00000000E+00  0.00000000E+00
  0.00000000E+00  0.00000000E+00  0.00000000E+00
  0.00000000E+00  0.00000000E+00  0.00000000E+00
  0.00000000E+00  0.00000000E+00  0.00000000E+00
  0.00000000E+00  0.00000000E+00  0.00000000E+00
  0.00000000E+00  0.00000000E+00  0.00000000E+00
  0.00000000E+00  0.00000000E+00  0.00000000E+00
  0.00000000E+00  0.00000000E+00  0.00000000E+00
  0.00000000E+00  0.00000000E+00  0.00000000E+00
  0.00000000E+00  0.00000000E+00  0.00000000E+00
  0.00000000E+00  0.00000000E+00  0.00000000E+00
  0.00000000E+00  0.00000000E+00  0.00000000E+00
  0.00000000E+00  0.00000000E+00  0.00000000E+00
  0.00000000E+00  0.00000000E+00  0.00000000E+00
  0.00000000E+00  0.00000000E+00  0.00000000E+00
  0.00000000E+00  0.00000000E+00  0.00000000E+00
  0.00000000E+00  0.00000000E+00  0.00000000E+00
  0.00000000E+00  0.00000000E+00  0.00000000E+00
  0.00000000E+00  0.00000000E+00  0.00000000E+00
  0.00000000E+00  0.00000000E+00  0.00000000E+00
  0.00000000E+00  0.00000000E+00  0.00000000E+00
  0.00000000E+00  0.00000000E+00  0.00000000E+00
  0.00000000E+00  0.00000000E+00  0.00000000E+00
  0.00000000E+00  0.00000000E+00  0.00000000E+00
  0.00000000E+00  0.00000000E+00  0.00000000E+00
  0.00000000E+00  0.00000000E+00  0.00000000E+00
  0.00000000E+00  0.00000000E+00  0.00000000E+00
  0.00000000E+00  0.00000000E+00  0.00000000E+00
  0.00000000E+00  0.00000000E+00  0.00000000E+00
  0.00000000E+00  0.00000000E+00  0.00000000E+00
  0.00000000E+00  0.00000000E+00  0.00000000E+00
  0.00000000E+00  0.00000000E+00  0.00000000E+00
  0.00000000E+00  0.00000000E+00  0.00000000E+00
  0.00000000E+00  0.00000000E+00  0.00000000E+00
  0.00000000E+00  0.00000000E+00  0.00000000E+00
  0.00000000E+00  0.00000000E+00  0.00000000E+00
  0.00000000E+00  0.00000000E+00  0.00000000E+00
  0.00000000E+00  0.00000000E+00  0.00000000E+00
  0.00000000E+00  0.00000000E+00  0.00000000E+00
  0.00000000E+00  0.00000000E+00  0.00000000E+00
  0.00000000E+00  0.00000000E+00  0.00000000E+00
  0.00000000E+00  0.00000000E+00  0.00000000E+00
  0.00000000E+00  0.00000000E+00  0.00000000E+00
  0.00000000E+00  0.00000000E+00  0.00000000E+00
  0.00000000E+00  0.00000000E+00  0.00000000E+00
  0.00000000E+00  0.00000000E+00  0.00000000E+00
  0.00000000E+00  0.00000000E+00  0.00000000E+00
  0.00000000E+00  0.00000000E+00  0.00000000E+00
  0.00000000E+00  0.00000000E+00  0.00000000E+00
  0.00000000E+00  0.00000000E+00  0.00000000E+00
  0.00000000E+00  0.00000000E+00  0.00000000E+00
  0.00000000E+00  0.00000000E+00  0.00000000E+00
  0.00000000E+00  0.00000000E+00  0.00000000E+00
  0.00000000E+00  0.00000000E+00  0.00000000E+00
  0.00000000E+00  0.00000000E+00  0.00000000E+00
  0.00000000E+00  0.00000000E+00  0.00000000E+00
  0.00000000E+00  0.00000000E+00  0.00000000E+00
  0.00000000E+00  0.00000000E+00  0.00000000E+00
  0.00000000E+00  0.00000000E+00  0.00000000E+00
  0.00000000E+00  0.00000000E+00  0.00000000E+00
  0.00000000E+00  0.00000000E+00  0.00000000E+00
  0.00000000E+00  0.00000000E+00  0.00000000E+00
  0.00000000E+00  0.00000000E+00  0.00000000E+00
  0.00000000E+00  0.00000000E+00  0.00000000E+00
  0.00000000E+00  0.00000000E+00  0.00000000E+00
  0.00000000E+00  0.00000000E+00  0.00000000E+00
  0.00000000E+00  0.00000000E+00  0.00000000E+00
  0.00000000E+00  0.00000000E+00  0.00000000E+00
  0.00000000E+00  0.00000000E+00  0.00000000E+00
  0.00000000E+00  0.00000000E+00  0.00000000E+00
  0.00000000E+00  0.00000000E+00  0.00000000E+00
  0.00000000E+00  0.00000000E+00  0.00000000E+00
  0.00000000E+00  0.00000000E+00  0.00000000E+00
  0.00000000E+00  0.00000000E+00  0.00000000E+00
  0.00000000E+00  0.00000000E+00  0.00000000E+00
