Cu   Pt   H                             
   1.00000000000000     
    10.5600004195999997    0.0000000000000000    0.0000000000000000
     5.2800002097999998    9.1452286273999999    0.0000000000000000
     0.0000000000000000    0.0000000000000000   22.0000000000000000
   Cu   Pt   H 
    64    16     2
Selective dynamics
Direct
  0.7850105230919574  0.8690394054410597  0.3144360573811198   T   T   T
  0.0352437793465288  0.8691933971539932  0.3145173890528336   T   T   T
  0.0352969643986126  0.6190819032860947  0.3143928658404104   T   T   T
  0.7862489977741944  0.8683580306463838  0.0449029301409070   F   F   F
  0.0363259342032549  0.8683109594885678  0.0449037755136388   F   F   F
  0.0362926956164600  0.6183453800441185  0.0449040668727250   F   F   F
  0.6190059373410435  0.2020352778895287  0.1352781702363615   F   F   F
  0.3690287182127392  0.9520179664196391  0.1352793628454521   F   F   F
  0.0351263190422446  0.3691187931131040  0.3143286822410549   T   T   T
  0.0363223169521234  0.3683400816035913  0.0449042535590891   F   F   F
  0.8690354394784165  0.2020170446548164  0.1352869309954556   F   F   F
  0.9522002920536426  0.5355824328275701  0.2248210795285057   T   T   T
  0.2851024823158407  0.1191240181163695  0.3143180689639322   T   T   T
  0.5356644721113379  0.6194871996630313  0.3135368251431174   T   T   T
  0.2846674689210250  0.3686536615772222  0.3141004538077981   T   T   T
  0.2862743719031045  0.1183406332300407  0.0449050022409097   F   F   F
  0.5363161573872759  0.6183452978263801  0.0448859087045435   F   F   F
  0.2863548261650166  0.3683290234218717  0.0448970020954533   F   F   F
  0.6190115951470077  0.9519934922693309  0.1352729054090887   F   F   F
  0.7020473770621013  0.7855571087374672  0.2248799705834176   T   T   T
  0.8690562341340424  0.7019773347563785  0.1352801621909094   F   F   F
  0.6190154306749704  0.4520216268748740  0.1352790409500031   F   F   F
  0.2854085437169303  0.8690744124826065  0.3145019115501891   T   T   T
  0.2863313801676881  0.8683468335616311  0.0448881439999980   F   F   F
  0.6190297104958304  0.7020185649120592  0.1352794445545484   F   F   F
  0.2021932082727953  0.0350787295023996  0.2250264289667118   T   T   T
  0.5351938759243646  0.3690125037051652  0.3141519656014799   T   T   T
  0.5362909971988969  0.3683687437629146  0.0448882480863659   F   F   F
  0.5351259358266548  0.1192405951001913  0.3143841738548662   T   T   T
  0.5363149216246015  0.1183187474021210  0.0448927739090905   F   F   F
  0.8690821575080889  0.4519764673149709  0.1352776201363639   F   F   F
  0.1190566022182153  0.4520153678952070  0.1352898458409086   F   F   F
  0.0350808158116070  0.1190714064189653  0.3143926317002577   T   T   T
  0.0362816687696892  0.1183447565605249  0.0449075346136354   F   F   F
  0.1190601259472075  0.9519896514796216  0.1352788457909071   F   F   F
  0.4520416915462541  0.5354957858629199  0.2247272768179042   T   T   T
  0.3690244471336612  0.2020149772051383  0.1352856928499975   F   F   F
  0.1190303050251416  0.2020411246214309  0.1352914691636329   F   F   F
  0.9521215915251778  0.7856336952037875  0.2249436694505368   T   T   T
  0.7861187883900169  0.6184812828201732  0.3142159718335599   T   T   T
  0.2849329008466537  0.6191076131391270  0.3140433563331931   T   T   T
  0.7862585535986497  0.6183514669231087  0.0448983113227257   F   F   F
  0.2863148512113511  0.6183444775079039  0.0448935090136331   F   F   F
  0.3690604108637601  0.7020085334733963  0.1352746690909115   F   F   F
  0.3690289842654053  0.4520183087839627  0.1352848660681829   F   F   F
  0.2019271586745884  0.2854595129847550  0.2247929980666977   T   T   T
  0.7847508015847213  0.3695781368691268  0.3146328246255701   T   T   T
  0.7862455880820818  0.3683649368487991  0.0448978039272703   F   F   F
  0.9520537473625946  0.0355601961801596  0.2249146704602038   T   T   T
  0.4518013525007437  0.7862436560074137  0.2246475521825842   T   T   T
  0.7027724487756509  0.5352647111292236  0.2246529541540052   T   T   T
  0.2018172694705566  0.7859469552926099  0.2248737540888122   T   T   T
  0.4520579782762217  0.0357357304484136  0.2248092975348287   T   T   T
  0.1190753377591065  0.7019761661032575  0.1352883550727242   F   F   F
  0.7021166649358072  0.0356307585028849  0.2249256469742215   T   T   T
  0.7851966904590370  0.1192038059928287  0.3145001163868005   T   T   T
  0.5344722412527568  0.8701485496412750  0.3142060310388671   T   T   T
  0.7863001972648362  0.1183328961790693  0.0449101627227293   F   F   F
  0.5362660313703174  0.8683264854426795  0.0448757432500031   F   F   F
  0.2021563215503999  0.5356471708063414  0.2248741537861667   T   T   T
  0.9514233495804314  0.2857843299399829  0.2250809787925886   T   T   T
  0.8690701809434032  0.9519851025282833  0.1352848888045486   F   F   F
  0.7024078515506695  0.2853628988732601  0.2249013249180730   T   T   T
  0.4521809520121227  0.2856919354093303  0.2248959898140621   T   T   T
  0.8679245171294450  0.9529584192640247  0.4134025501846689   T   T   T
  0.1178721249630132  0.4528919137616278  0.4134653161706207   T   T   T
  0.1173313831232945  0.9537376047045739  0.4136183422582689   T   T   T
  0.8686745595802113  0.4528873739812282  0.4135150646730609   T   T   T
  0.3678312281309046  0.9537218839467587  0.4135058617521640   T   T   T
  0.8686471366978570  0.2023378157362029  0.4135644191609542   T   T   T
  0.1179797013319482  0.2030801116137641  0.4133254920175796   T   T   T
  0.6179953925272762  0.9533311508079195  0.4135348938401371   T   T   T
  0.8682944027803596  0.7030769954553616  0.4134820928500300   T   T   T
  0.3678304072743011  0.2029206493595568  0.4134053740857757   T   T   T
  0.3665779656966188  0.7041672154113524  0.4114147992990281   T   T   T
  0.6190566767463620  0.4516730514404406  0.4117939504918279   T   T   T
  0.1172138292561738  0.7032210399914405  0.4134188802328583   T   T   T
  0.6181839945212932  0.2021952281761343  0.4134153467216828   T   T   T
  0.3672369409007019  0.4522825747621963  0.4123204357118391   T   T   T
  0.6188936754257919  0.7039055245663326  0.4119149049445966   T   T   T
  0.4720298366927767  0.5576295263804968  0.5047362433721077   T   T   T
  0.5148272014159618  0.5993199345285277  0.5049560907375026   T   T   T
 
  0.00000000E+00  0.00000000E+00  0.00000000E+00
  0.00000000E+00  0.00000000E+00  0.00000000E+00
  0.00000000E+00  0.00000000E+00  0.00000000E+00
  0.00000000E+00  0.00000000E+00  0.00000000E+00
  0.00000000E+00  0.00000000E+00  0.00000000E+00
  0.00000000E+00  0.00000000E+00  0.00000000E+00
  0.00000000E+00  0.00000000E+00  0.00000000E+00
  0.00000000E+00  0.00000000E+00  0.00000000E+00
  0.00000000E+00  0.00000000E+00  0.00000000E+00
  0.00000000E+00  0.00000000E+00  0.00000000E+00
  0.00000000E+00  0.00000000E+00  0.00000000E+00
  0.00000000E+00  0.00000000E+00  0.00000000E+00
  0.00000000E+00  0.00000000E+00  0.00000000E+00
  0.00000000E+00  0.00000000E+00  0.00000000E+00
  0.00000000E+00  0.00000000E+00  0.00000000E+00
  0.00000000E+00  0.00000000E+00  0.00000000E+00
  0.00000000E+00  0.00000000E+00  0.00000000E+00
  0.00000000E+00  0.00000000E+00  0.00000000E+00
  0.00000000E+00  0.00000000E+00  0.00000000E+00
  0.00000000E+00  0.00000000E+00  0.00000000E+00
  0.00000000E+00  0.00000000E+00  0.00000000E+00
  0.00000000E+00  0.00000000E+00  0.00000000E+00
  0.00000000E+00  0.00000000E+00  0.00000000E+00
  0.00000000E+00  0.00000000E+00  0.00000000E+00
  0.00000000E+00  0.00000000E+00  0.00000000E+00
  0.00000000E+00  0.00000000E+00  0.00000000E+00
  0.00000000E+00  0.00000000E+00  0.00000000E+00
  0.00000000E+00  0.00000000E+00  0.00000000E+00
  0.00000000E+00  0.00000000E+00  0.00000000E+00
  0.00000000E+00  0.00000000E+00  0.00000000E+00
  0.00000000E+00  0.00000000E+00  0.00000000E+00
  0.00000000E+00  0.00000000E+00  0.00000000E+00
  0.00000000E+00  0.00000000E+00  0.00000000E+00
  0.00000000E+00  0.00000000E+00  0.00000000E+00
  0.00000000E+00  0.00000000E+00  0.00000000E+00
  0.00000000E+00  0.00000000E+00  0.00000000E+00
  0.00000000E+00  0.00000000E+00  0.00000000E+00
  0.00000000E+00  0.00000000E+00  0.00000000E+00
  0.00000000E+00  0.00000000E+00  0.00000000E+00
  0.00000000E+00  0.00000000E+00  0.00000000E+00
  0.00000000E+00  0.00000000E+00  0.00000000E+00
  0.00000000E+00  0.00000000E+00  0.00000000E+00
  0.00000000E+00  0.00000000E+00  0.00000000E+00
  0.00000000E+00  0.00000000E+00  0.00000000E+00
  0.00000000E+00  0.00000000E+00  0.00000000E+00
  0.00000000E+00  0.00000000E+00  0.00000000E+00
  0.00000000E+00  0.00000000E+00  0.00000000E+00
  0.00000000E+00  0.00000000E+00  0.00000000E+00
  0.00000000E+00  0.00000000E+00  0.00000000E+00
  0.00000000E+00  0.00000000E+00  0.00000000E+00
  0.00000000E+00  0.00000000E+00  0.00000000E+00
  0.00000000E+00  0.00000000E+00  0.00000000E+00
  0.00000000E+00  0.00000000E+00  0.00000000E+00
  0.00000000E+00  0.00000000E+00  0.00000000E+00
  0.00000000E+00  0.00000000E+00  0.00000000E+00
  0.00000000E+00  0.00000000E+00  0.00000000E+00
  0.00000000E+00  0.00000000E+00  0.00000000E+00
  0.00000000E+00  0.00000000E+00  0.00000000E+00
  0.00000000E+00  0.00000000E+00  0.00000000E+00
  0.00000000E+00  0.00000000E+00  0.00000000E+00
  0.00000000E+00  0.00000000E+00  0.00000000E+00
  0.00000000E+00  0.00000000E+00  0.00000000E+00
  0.00000000E+00  0.00000000E+00  0.00000000E+00
  0.00000000E+00  0.00000000E+00  0.00000000E+00
  0.00000000E+00  0.00000000E+00  0.00000000E+00
  0.00000000E+00  0.00000000E+00  0.00000000E+00
  0.00000000E+00  0.00000000E+00  0.00000000E+00
  0.00000000E+00  0.00000000E+00  0.00000000E+00
  0.00000000E+00  0.00000000E+00  0.00000000E+00
  0.00000000E+00  0.00000000E+00  0.00000000E+00
  0.00000000E+00  0.00000000E+00  0.00000000E+00
  0.00000000E+00  0.00000000E+00  0.00000000E+00
  0.00000000E+00  0.00000000E+00  0.00000000E+00
  0.00000000E+00  0.00000000E+00  0.00000000E+00
  0.00000000E+00  0.00000000E+00  0.00000000E+00
  0.00000000E+00  0.00000000E+00  0.00000000E+00
  0.00000000E+00  0.00000000E+00  0.00000000E+00
  0.00000000E+00  0.00000000E+00  0.00000000E+00
  0.00000000E+00  0.00000000E+00  0.00000000E+00
  0.00000000E+00  0.00000000E+00  0.00000000E+00
  0.00000000E+00  0.00000000E+00  0.00000000E+00
  0.00000000E+00  0.00000000E+00  0.00000000E+00
