Pt   H                                  
   1.00000000000000     
    10.5600004195999997    0.0000000000000000    0.0000000000000000
    -5.2800002097999998    9.1452286273999999    0.0000000000000000
     0.0000000000000000    0.0000000000000000   20.0000000000000000
   Pt   H 
    64     2
Selective dynamics
Direct
  0.9999984446215961  0.0000015553793773  0.0557922949150012   F   F   F
  0.3334635646033368  0.1682109278070529  0.1795279156345303   T   T   T
  0.1692637375962245  0.3335079271490419  0.3079318452958580   T   T   T
  0.0027398473981340  0.0026430968872043  0.4168782736009504   T   T   T
  0.9999984416169312  0.2500015483757210  0.0557922949150012   F   F   F
  0.3334469247470362  0.4165025554633874  0.1882783440671965   T   T   T
  0.1693892308203457  0.0871850430838414  0.3002328542587673   T   T   T
  0.0011041761508292  0.2499303291430498  0.4206283509740711   T   T   T
  0.2499984416169312  0.2500015483757210  0.0557922949150012   F   F   F
  0.0850307844353052  0.4162387030413986  0.1787712885280293   T   T   T
  0.4166500704134029  0.0844220139069370  0.2967335862431687   T   T   T
  0.2487953610035411  0.2466601207369718  0.4507426894323600   T   T   T
  0.2499984446215961  0.0000015553793773  0.0557922949150012   F   F   F
  0.0854372715311360  0.1681938079746496  0.1801616073721086   T   T   T
  0.4159413352128366  0.3342572085547529  0.3072082623875713   T   T   T
  0.2495528851084121  0.0002711611390660  0.4173848445818825   T   T   T
  0.4999984446215961  0.0000015553793773  0.0557922949150012   F   F   F
  0.8341368348965179  0.1666003223874027  0.1773001728939397   T   T   T
  0.6656136838414329  0.3333513173307522  0.2963977291522309   T   T   T
  0.5001389643837120  0.0000327020652242  0.4178175717580755   T   T   T
  0.4999984296188273  0.2500015483757210  0.0557922949150012   F   F   F
  0.8332306596564535  0.4163857558151009  0.1757897363842580   T   T   T
  0.6666641795045631  0.0833805864917675  0.2966197022776800   T   T   T
  0.5001933882192116  0.2501678519005157  0.4193007817839957   T   T   T
  0.7499984076207227  0.2500015483757210  0.0557922949150012   F   F   F
  0.5817255428438007  0.4165002413914529  0.1793423978901869   T   T   T
  0.9181019265293824  0.0840510698596953  0.2968530091568783   T   T   T
  0.7502213702996928  0.2501270886239840  0.4176345470491368   T   T   T
  0.7499984216197078  0.0000015553793773  0.0557922949150012   F   F   F
  0.5829875616485165  0.1668789139787987  0.1768331404689035   T   T   T
  0.9174921063676805  0.3324106252648155  0.2964547558751390   T   T   T
  0.7506174850592584  0.9998745081486451  0.4172411529631541   T   T   T
  0.9999984376190483  0.5000015423780582  0.0557922949150012   F   F   F
  0.3337535341050594  0.6649170907106526  0.1788142266771876   T   T   T
  0.1679430288562988  0.8340464517645838  0.2929484743056762   T   T   T
  0.0007157120907445  0.4998284309808811  0.4153743327849164   T   T   T
  0.9999984326223199  0.7500015093827130  0.0557922949150012   F   F   F
  0.3335893551110892  0.9167518275748960  0.1760468087951015   T   T   T
  0.1689787922218783  0.5812445835159235  0.2972551400193250   T   T   T
  1.0000258430920870  0.7504487207814202  0.4103876980197193   T   T   T
  0.2499984326223199  0.7500015093827130  0.0557922949150012   F   F   F
  0.0841674368016328  0.9180453207546798  0.1752396730832019   T   T   T
  0.4165063572659750  0.5807470300908172  0.3079615223605501   T   T   T
  0.2504872194198227  0.7495475846076687  0.4157054193614099   T   T   T
  0.2499984376190483  0.5000015423780582  0.0557922949150012   F   F   F
  0.0840085584819111  0.6660606212504967  0.1745154262455476   T   T   T
  0.4177088256609180  0.8326278823152664  0.2966041743626870   T   T   T
  0.2492938177766934  0.5011363328004440  0.4321060382798486   T   T   T
  0.4999984376190483  0.5000015423780582  0.0557922949150012   F   F   F
  0.8318998778259459  0.6658568651938780  0.1752113814327865   T   T   T
  0.6661721704578599  0.8321575234666648  0.2969877200289625   T   T   T
  0.5042946827031712  0.5022217292181675  0.4489282492480051   T   T   T
  0.4999984326223199  0.7500015093827130  0.0557922949150012   F   F   F
  0.8332997935758270  0.9166566357346638  0.1756732382008313   T   T   T
  0.6629020207630043  0.5808654505814789  0.3002181292337702   T   T   T
  0.5005211520524385  0.7493275331471188  0.4206152637365699   T   T   T
  0.7499984106242152  0.7500015093827130  0.0557922949150012   F   F   F
  0.5833211037805234  0.9158127972037455  0.1773341195783426   T   T   T
  0.9161799834459809  0.5822836986934369  0.2926789088257780   T   T   T
  0.7481460958110381  0.7480010522326318  0.4172986391451850   T   T   T
  0.7499983926190481  0.5000015423780582  0.0557922949150012   F   F   F
  0.5817520669058104  0.6645560358547160  0.1803271826132770   T   T   T
  0.9161157738239175  0.8338983539220344  0.2929335587565488   T   T   T
  0.7501158218602542  0.5007989129257396  0.4168421949316727   T   T   T
  0.3311675458321180  0.4150944667614820  0.5016450165368168   T   T   T
  0.4072633353710810  0.3399554610597346  0.5042679414373626   T   T   T
 
  0.00000000E+00  0.00000000E+00  0.00000000E+00
  0.00000000E+00  0.00000000E+00  0.00000000E+00
  0.00000000E+00  0.00000000E+00  0.00000000E+00
  0.00000000E+00  0.00000000E+00  0.00000000E+00
  0.00000000E+00  0.00000000E+00  0.00000000E+00
  0.00000000E+00  0.00000000E+00  0.00000000E+00
  0.00000000E+00  0.00000000E+00  0.00000000E+00
  0.00000000E+00  0.00000000E+00  0.00000000E+00
  0.00000000E+00  0.00000000E+00  0.00000000E+00
  0.00000000E+00  0.00000000E+00  0.00000000E+00
  0.00000000E+00  0.00000000E+00  0.00000000E+00
  0.00000000E+00  0.00000000E+00  0.00000000E+00
  0.00000000E+00  0.00000000E+00  0.00000000E+00
  0.00000000E+00  0.00000000E+00  0.00000000E+00
  0.00000000E+00  0.00000000E+00  0.00000000E+00
  0.00000000E+00  0.00000000E+00  0.00000000E+00
  0.00000000E+00  0.00000000E+00  0.00000000E+00
  0.00000000E+00  0.00000000E+00  0.00000000E+00
  0.00000000E+00  0.00000000E+00  0.00000000E+00
  0.00000000E+00  0.00000000E+00  0.00000000E+00
  0.00000000E+00  0.00000000E+00  0.00000000E+00
  0.00000000E+00  0.00000000E+00  0.00000000E+00
  0.00000000E+00  0.00000000E+00  0.00000000E+00
  0.00000000E+00  0.00000000E+00  0.00000000E+00
  0.00000000E+00  0.00000000E+00  0.00000000E+00
  0.00000000E+00  0.00000000E+00  0.00000000E+00
  0.00000000E+00  0.00000000E+00  0.00000000E+00
  0.00000000E+00  0.00000000E+00  0.00000000E+00
  0.00000000E+00  0.00000000E+00  0.00000000E+00
  0.00000000E+00  0.00000000E+00  0.00000000E+00
  0.00000000E+00  0.00000000E+00  0.00000000E+00
  0.00000000E+00  0.00000000E+00  0.00000000E+00
  0.00000000E+00  0.00000000E+00  0.00000000E+00
  0.00000000E+00  0.00000000E+00  0.00000000E+00
  0.00000000E+00  0.00000000E+00  0.00000000E+00
  0.00000000E+00  0.00000000E+00  0.00000000E+00
  0.00000000E+00  0.00000000E+00  0.00000000E+00
  0.00000000E+00  0.00000000E+00  0.00000000E+00
  0.00000000E+00  0.00000000E+00  0.00000000E+00
  0.00000000E+00  0.00000000E+00  0.00000000E+00
  0.00000000E+00  0.00000000E+00  0.00000000E+00
  0.00000000E+00  0.00000000E+00  0.00000000E+00
  0.00000000E+00  0.00000000E+00  0.00000000E+00
  0.00000000E+00  0.00000000E+00  0.00000000E+00
  0.00000000E+00  0.00000000E+00  0.00000000E+00
  0.00000000E+00  0.00000000E+00  0.00000000E+00
  0.00000000E+00  0.00000000E+00  0.00000000E+00
  0.00000000E+00  0.00000000E+00  0.00000000E+00
  0.00000000E+00  0.00000000E+00  0.00000000E+00
  0.00000000E+00  0.00000000E+00  0.00000000E+00
  0.00000000E+00  0.00000000E+00  0.00000000E+00
  0.00000000E+00  0.00000000E+00  0.00000000E+00
  0.00000000E+00  0.00000000E+00  0.00000000E+00
  0.00000000E+00  0.00000000E+00  0.00000000E+00
  0.00000000E+00  0.00000000E+00  0.00000000E+00
  0.00000000E+00  0.00000000E+00  0.00000000E+00
  0.00000000E+00  0.00000000E+00  0.00000000E+00
  0.00000000E+00  0.00000000E+00  0.00000000E+00
  0.00000000E+00  0.00000000E+00  0.00000000E+00
  0.00000000E+00  0.00000000E+00  0.00000000E+00
  0.00000000E+00  0.00000000E+00  0.00000000E+00
  0.00000000E+00  0.00000000E+00  0.00000000E+00
  0.00000000E+00  0.00000000E+00  0.00000000E+00
  0.00000000E+00  0.00000000E+00  0.00000000E+00
  0.00000000E+00  0.00000000E+00  0.00000000E+00
  0.00000000E+00  0.00000000E+00  0.00000000E+00
