Pt111                                   
   1.00000000000000     
    10.8599996560000012    0.0000000000000000    0.0000000000000000
     5.4299998282000006    9.4050210000029999    0.0000000000000000
     0.0000000000000000    0.0000000000000000   22.0000000000000000
   Pt
    80
Direct
  0.7843896751372574  0.8694684925207931  0.3317071646558620
  0.0344113148716860  0.8694854055309189  0.3318060554562059
  0.0344230802638006  0.6194234049229428  0.3319279764632196
  0.7871517374804567  0.8677637897112144  0.0143940517234209
  0.0373694776104240  0.8675245008943339  0.0144722452141526
  0.0372003258879698  0.6177153317426801  0.0145364098441439
  0.6195453762402554  0.2016719456917402  0.1214436873282726
  0.3695827549173528  0.9516566916342677  0.1215558852665833
  0.0343964678001643  0.3694851097293612  0.3319329207893877
  0.0373161468288873  0.3677576942269157  0.0145897932387086
  0.8696214289379555  0.2016440143055337  0.1214394714807502
  0.9518807556690320  0.5356570060301568  0.2267389344015436
  0.2844189169083453  0.1194206793440114  0.3319253133582472
  0.5344328514792028  0.6194113519726510  0.3318127344337653
  0.2843973399897362  0.3694591327001948  0.3319919922832068
  0.2871948943406031  0.1177110705445589  0.0145573727496825
  0.5373117811731181  0.6176851858073191  0.0144836020229949
  0.2873697325301909  0.3675998189849130  0.0145811091530719
  0.6195486753375307  0.9516516269509550  0.1214215105958413
  0.7019359541967246  0.7856511038886553  0.2265923855107264
  0.8695712174384747  0.7017027591005351  0.1215202694263372
  0.6195649984915742  0.4516559995169821  0.1214924145040686
  0.2843819769831157  0.8694918133866720  0.3318430254173642
  0.2872708505380694  0.8677371309721681  0.0145476471897235
  0.6195362943189339  0.7017046619387479  0.1214927929415612
  0.2018801675955796  0.0356278969142863  0.2267268909081936
  0.8669377663816790  0.9531950175860822  0.4387591463976301
  0.1170345904511432  0.4531063509912094  0.4390242108985006
  0.1171467752543290  0.9532629775331305  0.4388521496106526
  0.8668967373957702  0.4533128003442667  0.4388537469271718
  0.3673280836725273  0.9530533818609933  0.4388810783061344
  0.8671348476279359  0.2030786659175415  0.4388805142149422
  0.1170812320227487  0.2030895067543468  0.4389385031464957
  0.6170184761298138  0.9531165035269241  0.4388180089444130
  0.8672440968438874  0.7031459591178797  0.4388421140976269
  0.3670169034584243  0.2033167862195324  0.4389193117058969
  0.3668962735743092  0.7031410760571591  0.4388711714198842
  0.6171277219752572  0.4532136098201596  0.4388108820700110
  0.1170414955018151  0.7032650522159073  0.4389472820338228
  0.6171930170821981  0.2030880116250089  0.4387730334015602
  0.5343840986075669  0.3694716361138944  0.3318286168183093
  0.5370550107458273  0.3678675247099852  0.0144680286031521
  0.5344097189976975  0.1194034764914511  0.3317826711787051
  0.5373004767842993  0.1176334435697916  0.0144803975415351
  0.8695805941418930  0.4516373076278866  0.1215360283081887
  0.1195599806521777  0.4517052564853539  0.1216828745840780
  0.0343878143636789  0.1194446717931045  0.3318231933733391
  0.0372315013345679  0.1177361437459692  0.0144280725396662
  0.1195708167354176  0.9516962070121718  0.1215289242062760
  0.3672027018381113  0.4531250409734739  0.4390026598716169
  0.4518930425381733  0.5356667495971803  0.2267270182643325
  0.6170531595465174  0.7031899478003811  0.4388357458799362
  0.3695886051018286  0.2016836305632837  0.1216077818314069
  0.1195074803069119  0.2016916744733652  0.1216298317932323
  0.9518738706357330  0.7856278180843754  0.2266426534311674
  0.7844278497502459  0.6194341532768725  0.3318126246082680
  0.2844373085291924  0.6194173293570334  0.3319540550368469
  0.7873169719868888  0.6175965353980898  0.0144719868460017
  0.2872140201235128  0.6177178575314637  0.0145390689774329
  0.3696117616949612  0.7016307496528653  0.1215855833247009
  0.3695934596968543  0.4516547638266264  0.1216281105663003
  0.2018837572392718  0.2856693865293835  0.2268231811106765
  0.7844243928913883  0.3694205392613413  0.3317858562524794
  0.7872627979364732  0.3675618245011890  0.0144184518507794
  0.9518413698218486  0.0356730399644983  0.2265854792820985
  0.4518791694272599  0.7856568265637861  0.2266688678761087
  0.7018854018494395  0.5356313084081441  0.2266310449643200
  0.2019494873874101  0.7856531191196024  0.2267232850415104
  0.4518595433528258  0.0356859641579224  0.2266662621683540
  0.1195722317530254  0.7016766414491981  0.1216123594100356
  0.7018517169012712  0.0356597946685819  0.2265518622369477
  0.7844349904364972  0.1194430991489843  0.3317225748225610
  0.5344129947964583  0.8695031610715619  0.3317698975361747
  0.7873327121006677  0.1176744840908880  0.0143620248709645
  0.5372132899525083  0.8675985226671549  0.0143624125583799
  0.2019022194262114  0.5356371415353418  0.2268467194521196
  0.9518266923854677  0.2856561185841497  0.2266710087418863
  0.8695847144100290  0.9516161708716058  0.1214025170364250
  0.7018344810667126  0.2856633505271101  0.2266134405225628
  0.4518342924149051  0.2856603492612648  0.2267320631493362
 
  0.00000000E+00  0.00000000E+00  0.00000000E+00
  0.00000000E+00  0.00000000E+00  0.00000000E+00
  0.00000000E+00  0.00000000E+00  0.00000000E+00
  0.00000000E+00  0.00000000E+00  0.00000000E+00
  0.00000000E+00  0.00000000E+00  0.00000000E+00
  0.00000000E+00  0.00000000E+00  0.00000000E+00
  0.00000000E+00  0.00000000E+00  0.00000000E+00
  0.00000000E+00  0.00000000E+00  0.00000000E+00
  0.00000000E+00  0.00000000E+00  0.00000000E+00
  0.00000000E+00  0.00000000E+00  0.00000000E+00
  0.00000000E+00  0.00000000E+00  0.00000000E+00
  0.00000000E+00  0.00000000E+00  0.00000000E+00
  0.00000000E+00  0.00000000E+00  0.00000000E+00
  0.00000000E+00  0.00000000E+00  0.00000000E+00
  0.00000000E+00  0.00000000E+00  0.00000000E+00
  0.00000000E+00  0.00000000E+00  0.00000000E+00
  0.00000000E+00  0.00000000E+00  0.00000000E+00
  0.00000000E+00  0.00000000E+00  0.00000000E+00
  0.00000000E+00  0.00000000E+00  0.00000000E+00
  0.00000000E+00  0.00000000E+00  0.00000000E+00
  0.00000000E+00  0.00000000E+00  0.00000000E+00
  0.00000000E+00  0.00000000E+00  0.00000000E+00
  0.00000000E+00  0.00000000E+00  0.00000000E+00
  0.00000000E+00  0.00000000E+00  0.00000000E+00
  0.00000000E+00  0.00000000E+00  0.00000000E+00
  0.00000000E+00  0.00000000E+00  0.00000000E+00
  0.00000000E+00  0.00000000E+00  0.00000000E+00
  0.00000000E+00  0.00000000E+00  0.00000000E+00
  0.00000000E+00  0.00000000E+00  0.00000000E+00
  0.00000000E+00  0.00000000E+00  0.00000000E+00
  0.00000000E+00  0.00000000E+00  0.00000000E+00
  0.00000000E+00  0.00000000E+00  0.00000000E+00
  0.00000000E+00  0.00000000E+00  0.00000000E+00
  0.00000000E+00  0.00000000E+00  0.00000000E+00
  0.00000000E+00  0.00000000E+00  0.00000000E+00
  0.00000000E+00  0.00000000E+00  0.00000000E+00
  0.00000000E+00  0.00000000E+00  0.00000000E+00
  0.00000000E+00  0.00000000E+00  0.00000000E+00
  0.00000000E+00  0.00000000E+00  0.00000000E+00
  0.00000000E+00  0.00000000E+00  0.00000000E+00
  0.00000000E+00  0.00000000E+00  0.00000000E+00
  0.00000000E+00  0.00000000E+00  0.00000000E+00
  0.00000000E+00  0.00000000E+00  0.00000000E+00
  0.00000000E+00  0.00000000E+00  0.00000000E+00
  0.00000000E+00  0.00000000E+00  0.00000000E+00
  0.00000000E+00  0.00000000E+00  0.00000000E+00
  0.00000000E+00  0.00000000E+00  0.00000000E+00
  0.00000000E+00  0.00000000E+00  0.00000000E+00
  0.00000000E+00  0.00000000E+00  0.00000000E+00
  0.00000000E+00  0.00000000E+00  0.00000000E+00
  0.00000000E+00  0.00000000E+00  0.00000000E+00
  0.00000000E+00  0.00000000E+00  0.00000000E+00
  0.00000000E+00  0.00000000E+00  0.00000000E+00
  0.00000000E+00  0.00000000E+00  0.00000000E+00
  0.00000000E+00  0.00000000E+00  0.00000000E+00
  0.00000000E+00  0.00000000E+00  0.00000000E+00
  0.00000000E+00  0.00000000E+00  0.00000000E+00
  0.00000000E+00  0.00000000E+00  0.00000000E+00
  0.00000000E+00  0.00000000E+00  0.00000000E+00
  0.00000000E+00  0.00000000E+00  0.00000000E+00
  0.00000000E+00  0.00000000E+00  0.00000000E+00
  0.00000000E+00  0.00000000E+00  0.00000000E+00
  0.00000000E+00  0.00000000E+00  0.00000000E+00
  0.00000000E+00  0.00000000E+00  0.00000000E+00
  0.00000000E+00  0.00000000E+00  0.00000000E+00
  0.00000000E+00  0.00000000E+00  0.00000000E+00
  0.00000000E+00  0.00000000E+00  0.00000000E+00
  0.00000000E+00  0.00000000E+00  0.00000000E+00
  0.00000000E+00  0.00000000E+00  0.00000000E+00
  0.00000000E+00  0.00000000E+00  0.00000000E+00
  0.00000000E+00  0.00000000E+00  0.00000000E+00
  0.00000000E+00  0.00000000E+00  0.00000000E+00
  0.00000000E+00  0.00000000E+00  0.00000000E+00
  0.00000000E+00  0.00000000E+00  0.00000000E+00
  0.00000000E+00  0.00000000E+00  0.00000000E+00
  0.00000000E+00  0.00000000E+00  0.00000000E+00
  0.00000000E+00  0.00000000E+00  0.00000000E+00
  0.00000000E+00  0.00000000E+00  0.00000000E+00
  0.00000000E+00  0.00000000E+00  0.00000000E+00
  0.00000000E+00  0.00000000E+00  0.00000000E+00
