10.56                                   
   1.00000000000000     
    10.5600004195999997    0.0000000000000000    0.0000000000000000
     5.2800002097999998    9.1452286273999999    0.0000000000000000
     0.0000000000000000    0.0000000000000000   22.0000000000000000
   Pt   Cu   Ni   Fe   Co   H 
    32    13    10    13    12     1
Selective dynamics
Direct
  0.7902707966067908  0.8756948575026300  0.3162113455636373   F   F   F
  0.0440500266162900  0.8820215792235757  0.3162158321863657   F   F   F
  0.2874963550081233  0.3782637929395847  0.3199183984681824   F   F   F
  0.8754428581155267  0.9594883303529471  0.4239929002181810   F   F   F
  0.1270735552682041  0.4581883296439031  0.4261483751318167   F   F   F
  0.1265361969615739  0.9605079320031535  0.4223139358772698   F   F   F
  0.8774438612829343  0.4559654468021250  0.4251752224227303   F   F   F
  0.3752436552017500  0.9593720123751979  0.4186115175863634   F   F   F
  0.8748083592398501  0.2106121817369555  0.4215826113545447   F   F   F
  0.1265291896351926  0.2093489850831958  0.4224019794863665   F   F   F
  0.6227164728394783  0.9614978537502026  0.4234453695363669   F   F   F
  0.8774992402316713  0.7104417028606491  0.4283893771590925   F   F   F
  0.3743320086724538  0.2095662144473778  0.4276206677136329   F   F   F
  0.3751276829146946  0.7108361828946599  0.4260962611954540   F   F   F
  0.6252557149256930  0.4593659712030984  0.4234871895454546   F   F   F
  0.1257331598722615  0.7097681744283975  0.4254882949363648   F   F   F
  0.6256491931432109  0.2092339544106068  0.4249834803227301   F   F   F
  0.5541849733378115  0.3707599904983425  0.3176150997545477   F   F   F
  0.5380668808900282  0.1218699604470004  0.3148346795045427   F   F   F
  0.5474557691032089  0.1224145471164988  0.0383540260045478   F   F   F
  0.1236064448242544  0.4619868652207941  0.1274066645318186   F   F   F
  0.0402498282366395  0.1349315815575025  0.3134014316045466   F   F   F
  0.0323512895519684  0.1348251109224066  0.0344153389136395   F   F   F
  0.1267130615797001  0.9548495891329765  0.1316270848000016   F   F   F
  0.3751820915987381  0.4607099795708294  0.4270179873954518   F   F   F
  0.4577929944478427  0.5456247416986244  0.2200856014136363   F   F   F
  0.6196819643981755  0.7123878805260873  0.4256476554181816   F   F   F
  0.9641386328546346  0.7927262172516194  0.2176139731681843   F   F   F
  0.7896597832447441  0.6226451344627435  0.3196773884818214   F   F   F
  0.2931876031408862  0.6317584617173821  0.3191955450681832   F   F   F
  0.2112359165491497  0.2837402313404738  0.2226962608636356   F   F   F
  0.7170982237511581  0.5368531721328651  0.2205881042545457   F   F   F
  0.0406464897088128  0.6249513904744077  0.3209996875818177   F   F   F
  0.7972000438328166  0.8697589236827383  0.0374023497136378   F   F   F
  0.0440625835034183  0.8722191461787219  0.0345072269909110   F   F   F
  0.0392610792287442  0.6311846045166689  0.0351220357090938   F   F   F
  0.6257475188796491  0.2142350187539250  0.1326781676272759   F   F   F
  0.3760834871882253  0.9610439443107381  0.1305574189681806   F   F   F
  0.0401742760654145  0.3799656863021355  0.3206785778727266   F   F   F
  0.0396170568831593  0.3768031419767439  0.0334889225727295   F   F   F
  0.8676193552394906  0.2152196349365170  0.1309720674090897   F   F   F
  0.9596267895245916  0.5454269423352969  0.2247318812727244   F   F   F
  0.2925203534643757  0.1201259606576173  0.3193658045999967   F   F   F
  0.5404867685919470  0.6311612404096891  0.3211994211136329   F   F   F
  0.2917831490269052  0.1260602338629297  0.0372542039999999   F   F   F
  0.5454515139348999  0.6259782464101775  0.0420624231136344   F   F   F
  0.3067879116385299  0.3735680389951384  0.0391298778454541   F   F   F
  0.6278828336866127  0.9518576864791655  0.1326303949409109   F   F   F
  0.7014205873461066  0.7982020760125437  0.2228083038681845   F   F   F
  0.8663351732921925  0.7104737684778044  0.1283473372272752   F   F   F
  0.6246753788169244  0.4577386687586937  0.1281447755045448   F   F   F
  0.3006746599255621  0.8759405059376206  0.3161396712681821   F   F   F
  0.3061509070593971  0.8669645173489897  0.0394945869454517   F   F   F
  0.6189298912310122  0.7160352078547945  0.1315782563727268   F   F   F
  0.2158013217278736  0.0346202722424493  0.2239695528954542   F   F   F
  0.5413003481162377  0.3854934694292353  0.0392421232909115   F   F   F
  0.3793596896688101  0.2077414937564157  0.1304859276181816   F   F   F
  0.1397005988927233  0.7004273062357669  0.1260118729227244   F   F   F
  0.7032928047068907  0.0430698299351278  0.2223786639500034   F   F   F
  0.7946301301015524  0.1260483677189086  0.3229348464590913   F   F   F
  0.5387112416508941  0.8740540395732594  0.3175243421090883   F   F   F
  0.7886637734805362  0.1316311679178028  0.0356870601590913   F   F   F
  0.5500230713442207  0.8647745424215145  0.0409676415136389   F   F   F
  0.2133428810521139  0.5401467028500520  0.2246093103863629   F   F   F
  0.9628013650069889  0.2896499814519231  0.2215883351272723   F   F   F
  0.8674074857836018  0.9664102647932040  0.1274066662954567   F   F   F
  0.7175321873646183  0.2868729996907575  0.2245318191636372   F   F   F
  0.4591571903798268  0.2930458401412253  0.2237691903681807   F   F   F
  0.8738730802821166  0.4568980253572903  0.1267729113318197   F   F   F
  0.1172650635095778  0.2104917527411558  0.1300894581727263   F   F   F
  0.7847808401012983  0.6256565767374056  0.0430916531090944   F   F   F
  0.3044675991730514  0.6228429328419551  0.0413873785499987   F   F   F
  0.3774641631786082  0.7058247950696810  0.1277445443409064   F   F   F
  0.3790290951972111  0.4600384977577221  0.1289947120409067   F   F   F
  0.7960884008936304  0.3700769692580366  0.3180949507727249   F   F   F
  0.7878239818798747  0.3875206431014675  0.0411156729818174   F   F   F
  0.9438556562023948  0.0510421196689848  0.2234485127000028   F   F   F
  0.4570233967922803  0.8026344196806434  0.2250269443545463   F   F   F
  0.2162964734646451  0.7953313450368995  0.2247401188045473   F   F   F
  0.4610885657498471  0.0339352508881134  0.2216139020181842   F   F   F
  0.7955913209723562  0.6259084048648161  0.4710882282136374   T   T   T
 
  0.00000000E+00  0.00000000E+00  0.00000000E+00
  0.00000000E+00  0.00000000E+00  0.00000000E+00
  0.00000000E+00  0.00000000E+00  0.00000000E+00
  0.00000000E+00  0.00000000E+00  0.00000000E+00
  0.00000000E+00  0.00000000E+00  0.00000000E+00
  0.00000000E+00  0.00000000E+00  0.00000000E+00
  0.00000000E+00  0.00000000E+00  0.00000000E+00
  0.00000000E+00  0.00000000E+00  0.00000000E+00
  0.00000000E+00  0.00000000E+00  0.00000000E+00
  0.00000000E+00  0.00000000E+00  0.00000000E+00
  0.00000000E+00  0.00000000E+00  0.00000000E+00
  0.00000000E+00  0.00000000E+00  0.00000000E+00
  0.00000000E+00  0.00000000E+00  0.00000000E+00
  0.00000000E+00  0.00000000E+00  0.00000000E+00
  0.00000000E+00  0.00000000E+00  0.00000000E+00
  0.00000000E+00  0.00000000E+00  0.00000000E+00
  0.00000000E+00  0.00000000E+00  0.00000000E+00
  0.00000000E+00  0.00000000E+00  0.00000000E+00
  0.00000000E+00  0.00000000E+00  0.00000000E+00
  0.00000000E+00  0.00000000E+00  0.00000000E+00
  0.00000000E+00  0.00000000E+00  0.00000000E+00
  0.00000000E+00  0.00000000E+00  0.00000000E+00
  0.00000000E+00  0.00000000E+00  0.00000000E+00
  0.00000000E+00  0.00000000E+00  0.00000000E+00
  0.00000000E+00  0.00000000E+00  0.00000000E+00
  0.00000000E+00  0.00000000E+00  0.00000000E+00
  0.00000000E+00  0.00000000E+00  0.00000000E+00
  0.00000000E+00  0.00000000E+00  0.00000000E+00
  0.00000000E+00  0.00000000E+00  0.00000000E+00
  0.00000000E+00  0.00000000E+00  0.00000000E+00
  0.00000000E+00  0.00000000E+00  0.00000000E+00
  0.00000000E+00  0.00000000E+00  0.00000000E+00
  0.00000000E+00  0.00000000E+00  0.00000000E+00
  0.00000000E+00  0.00000000E+00  0.00000000E+00
  0.00000000E+00  0.00000000E+00  0.00000000E+00
  0.00000000E+00  0.00000000E+00  0.00000000E+00
  0.00000000E+00  0.00000000E+00  0.00000000E+00
  0.00000000E+00  0.00000000E+00  0.00000000E+00
  0.00000000E+00  0.00000000E+00  0.00000000E+00
  0.00000000E+00  0.00000000E+00  0.00000000E+00
  0.00000000E+00  0.00000000E+00  0.00000000E+00
  0.00000000E+00  0.00000000E+00  0.00000000E+00
  0.00000000E+00  0.00000000E+00  0.00000000E+00
  0.00000000E+00  0.00000000E+00  0.00000000E+00
  0.00000000E+00  0.00000000E+00  0.00000000E+00
  0.00000000E+00  0.00000000E+00  0.00000000E+00
  0.00000000E+00  0.00000000E+00  0.00000000E+00
  0.00000000E+00  0.00000000E+00  0.00000000E+00
  0.00000000E+00  0.00000000E+00  0.00000000E+00
  0.00000000E+00  0.00000000E+00  0.00000000E+00
  0.00000000E+00  0.00000000E+00  0.00000000E+00
  0.00000000E+00  0.00000000E+00  0.00000000E+00
  0.00000000E+00  0.00000000E+00  0.00000000E+00
  0.00000000E+00  0.00000000E+00  0.00000000E+00
  0.00000000E+00  0.00000000E+00  0.00000000E+00
  0.00000000E+00  0.00000000E+00  0.00000000E+00
  0.00000000E+00  0.00000000E+00  0.00000000E+00
  0.00000000E+00  0.00000000E+00  0.00000000E+00
  0.00000000E+00  0.00000000E+00  0.00000000E+00
  0.00000000E+00  0.00000000E+00  0.00000000E+00
  0.00000000E+00  0.00000000E+00  0.00000000E+00
  0.00000000E+00  0.00000000E+00  0.00000000E+00
  0.00000000E+00  0.00000000E+00  0.00000000E+00
  0.00000000E+00  0.00000000E+00  0.00000000E+00
  0.00000000E+00  0.00000000E+00  0.00000000E+00
  0.00000000E+00  0.00000000E+00  0.00000000E+00
  0.00000000E+00  0.00000000E+00  0.00000000E+00
  0.00000000E+00  0.00000000E+00  0.00000000E+00
  0.00000000E+00  0.00000000E+00  0.00000000E+00
  0.00000000E+00  0.00000000E+00  0.00000000E+00
  0.00000000E+00  0.00000000E+00  0.00000000E+00
  0.00000000E+00  0.00000000E+00  0.00000000E+00
  0.00000000E+00  0.00000000E+00  0.00000000E+00
  0.00000000E+00  0.00000000E+00  0.00000000E+00
  0.00000000E+00  0.00000000E+00  0.00000000E+00
  0.00000000E+00  0.00000000E+00  0.00000000E+00
  0.00000000E+00  0.00000000E+00  0.00000000E+00
  0.00000000E+00  0.00000000E+00  0.00000000E+00
  0.00000000E+00  0.00000000E+00  0.00000000E+00
  0.00000000E+00  0.00000000E+00  0.00000000E+00
  0.00000000E+00  0.00000000E+00  0.00000000E+00
