Pt   H                                  
   1.00000000000000     
    10.5600004195999997    0.0000000000000000    0.0000000000000000
    -5.2800002097999998    9.1452286273999999    0.0000000000000000
     0.0000000000000000    0.0000000000000000   20.0000000000000000
   Pt   H 
    64     2
Selective dynamics
Direct
  0.9999984446215961  0.0000015553793773  0.0557922949150012   F   F   F
  0.3334325248512665  0.1669316643183504  0.1777515085869914   T   T   T
  0.1667982348486742  0.3335085993169477  0.2995846200531576   T   T   T
 -0.0001515191447510 -0.0001013032709914  0.4183394276212748   T   T   T
  0.9999984416169312  0.2500015483757210  0.0557922949150012   F   F   F
  0.3333195985794420  0.4166453923953198  0.1790518398260561   T   T   T
  0.1669070311673724  0.0835600139440910  0.2974837435820021   T   T   T
  0.9998038345073997  0.2499429147779810  0.4203141626438234   T   T   T
  0.2499984416169312  0.2500015483757210  0.0557922949150012   F   F   F
  0.0836823421294771  0.4164595819818208  0.1781503274381067   T   T   T
  0.4167768000974955  0.0832978233640581  0.2970770028606177   T   T   T
  0.2497097053673775  0.2498227148746033  0.4201748793247567   T   T   T
  0.2499984446215961  0.0000015553793773  0.0557922949150012   F   F   F
  0.0836190765000427  0.1669887975362729  0.1779860463517493   T   T   T
  0.4166842633853264  0.3333215584726739  0.2987889907778343   T   T   T
  0.2499740685434992 -0.0000905120284162  0.4188117147820993   T   T   T
  0.4999984446215961  0.0000015553793773  0.0557922949150012   F   F   F
  0.8334862129219182  0.1666382157562189  0.1775500674632053   T   T   T
  0.6666868707974191  0.3332189689112166  0.2971139249492615   T   T   T
  0.4999825619974987  0.9999579584877447  0.4187673127737419   T   T   T
  0.4999984296188273  0.2500015483757210  0.0557922949150012   F   F   F
  0.8333083599362956  0.4164076542927282  0.1769676255929953   T   T   T
  0.6667671883118103  0.0832186524782027  0.2973439374174031   T   T   T
  0.5001221036879742  0.2498447196958242  0.4191700901877486   T   T   T
  0.7499984076207227  0.2500015483757210  0.0557922949150012   F   F   F
  0.5830385005451046  0.4165462447243989  0.1777793230319971   T   T   T
  0.9167251758034132  0.0834720958421082  0.2974867709058938   T   T   T
  0.7500142857841489  0.2499942369958445  0.4187744881395646   T   T   T
  0.7499984216197078  0.0000015553793773  0.0557922949150012   F   F   F
  0.5833504508271402  0.1666278915252533  0.1773393675171726   T   T   T
  0.9167750149726931  0.3330591454210591  0.2974090218831387   T   T   T
  0.7499620750450133  0.9999981271982890  0.4194852878154933   T   T   T
  0.9999984376190483  0.5000015423780582  0.0557922949150012   F   F   F
  0.3335011852096890  0.6662665313965130  0.1781654946166581   T   T   T
  0.1669714704415221  0.8333694005180170  0.2959056243148125   T   T   T
  1.0000026044273571  0.5000110122525275  0.4183364275060084   T   T   T
  0.9999984326223199  0.7500015093827130  0.0557922949150012   F   F   F
  0.3335712173422677  0.9166556251555277  0.1769336343357115   T   T   T
  0.1669195080291490  0.5830340027738381  0.2975960924169431   T   T   T
  0.9999801128834063  0.7499914762091726  0.4168106158320209   T   T   T
  0.2499984326223199  0.7500015093827130  0.0557922949150012   F   F   F
  0.0835346569843336  0.9169745017726307  0.1766856975966642   T   T   T
  0.4165032530037099  0.5832481505288257  0.2996423643517024   T   T   T
  0.2499539415617667  0.7499721897995203  0.4182560634769594   T   T   T
  0.2499984376190483  0.5000015423780582  0.0557922949150012   F   F   F
  0.0835420691889689  0.6664130973567245  0.1765057785996033   T   T   T
  0.4169336095178234  0.8332059629170593  0.2974159027363091   T   T   T
  0.2498153844102668  0.5001555136423397  0.4220490200519250   T   T   T
  0.4999984376190483  0.5000015423780582  0.0557922949150012   F   F   F
  0.8329854883474599  0.6664235203998023  0.1767363944758433   T   T   T
  0.6664887760711933  0.8332330929480201  0.2975755563810128   T   T   T
  0.5001408658102331  0.5002521848921310  0.4201772918481489   T   T   T
  0.4999984326223199  0.7500015093827130  0.0557922949150012   F   F   F
  0.8332243831417814  0.9167050135439448  0.1770434339442793   T   T   T
  0.6664455367023360  0.5830927627104417  0.2975607808188017   T   T   T
  0.5000200371546870  0.7501870378181807  0.4204822907319660   T   T   T
  0.7499984106242152  0.7500015093827130  0.0557922949150012   F   F   F
  0.5833246463926197  0.9164614781789342  0.1775701220721858   T   T   T
  0.9166043825047361  0.5829994515021963  0.2959870414577959   T   T   T
  0.7500610506645624  0.7501116590873296  0.4184837761649255   T   T   T
  0.7499983926190481  0.5000015423780582  0.0557922949150012   F   F   F
  0.5829625367482677  0.6663322601040880  0.1780494832052794   T   T   T
  0.9165404869204893  0.8334148090887408  0.2960070504014069   T   T   T
  0.7500641209423349  0.4999968539067987  0.4189124365490229   T   T   T
  0.3643397084514120  0.4027308894548002  0.5512087104409570   T   T   T
  0.3873985201925843  0.3456527695190029  0.5533392749609458   T   T   T
 
  0.00000000E+00  0.00000000E+00  0.00000000E+00
  0.00000000E+00  0.00000000E+00  0.00000000E+00
  0.00000000E+00  0.00000000E+00  0.00000000E+00
  0.00000000E+00  0.00000000E+00  0.00000000E+00
  0.00000000E+00  0.00000000E+00  0.00000000E+00
  0.00000000E+00  0.00000000E+00  0.00000000E+00
  0.00000000E+00  0.00000000E+00  0.00000000E+00
  0.00000000E+00  0.00000000E+00  0.00000000E+00
  0.00000000E+00  0.00000000E+00  0.00000000E+00
  0.00000000E+00  0.00000000E+00  0.00000000E+00
  0.00000000E+00  0.00000000E+00  0.00000000E+00
  0.00000000E+00  0.00000000E+00  0.00000000E+00
  0.00000000E+00  0.00000000E+00  0.00000000E+00
  0.00000000E+00  0.00000000E+00  0.00000000E+00
  0.00000000E+00  0.00000000E+00  0.00000000E+00
  0.00000000E+00  0.00000000E+00  0.00000000E+00
  0.00000000E+00  0.00000000E+00  0.00000000E+00
  0.00000000E+00  0.00000000E+00  0.00000000E+00
  0.00000000E+00  0.00000000E+00  0.00000000E+00
  0.00000000E+00  0.00000000E+00  0.00000000E+00
  0.00000000E+00  0.00000000E+00  0.00000000E+00
  0.00000000E+00  0.00000000E+00  0.00000000E+00
  0.00000000E+00  0.00000000E+00  0.00000000E+00
  0.00000000E+00  0.00000000E+00  0.00000000E+00
  0.00000000E+00  0.00000000E+00  0.00000000E+00
  0.00000000E+00  0.00000000E+00  0.00000000E+00
  0.00000000E+00  0.00000000E+00  0.00000000E+00
  0.00000000E+00  0.00000000E+00  0.00000000E+00
  0.00000000E+00  0.00000000E+00  0.00000000E+00
  0.00000000E+00  0.00000000E+00  0.00000000E+00
  0.00000000E+00  0.00000000E+00  0.00000000E+00
  0.00000000E+00  0.00000000E+00  0.00000000E+00
  0.00000000E+00  0.00000000E+00  0.00000000E+00
  0.00000000E+00  0.00000000E+00  0.00000000E+00
  0.00000000E+00  0.00000000E+00  0.00000000E+00
  0.00000000E+00  0.00000000E+00  0.00000000E+00
  0.00000000E+00  0.00000000E+00  0.00000000E+00
  0.00000000E+00  0.00000000E+00  0.00000000E+00
  0.00000000E+00  0.00000000E+00  0.00000000E+00
  0.00000000E+00  0.00000000E+00  0.00000000E+00
  0.00000000E+00  0.00000000E+00  0.00000000E+00
  0.00000000E+00  0.00000000E+00  0.00000000E+00
  0.00000000E+00  0.00000000E+00  0.00000000E+00
  0.00000000E+00  0.00000000E+00  0.00000000E+00
  0.00000000E+00  0.00000000E+00  0.00000000E+00
  0.00000000E+00  0.00000000E+00  0.00000000E+00
  0.00000000E+00  0.00000000E+00  0.00000000E+00
  0.00000000E+00  0.00000000E+00  0.00000000E+00
  0.00000000E+00  0.00000000E+00  0.00000000E+00
  0.00000000E+00  0.00000000E+00  0.00000000E+00
  0.00000000E+00  0.00000000E+00  0.00000000E+00
  0.00000000E+00  0.00000000E+00  0.00000000E+00
  0.00000000E+00  0.00000000E+00  0.00000000E+00
  0.00000000E+00  0.00000000E+00  0.00000000E+00
  0.00000000E+00  0.00000000E+00  0.00000000E+00
  0.00000000E+00  0.00000000E+00  0.00000000E+00
  0.00000000E+00  0.00000000E+00  0.00000000E+00
  0.00000000E+00  0.00000000E+00  0.00000000E+00
  0.00000000E+00  0.00000000E+00  0.00000000E+00
  0.00000000E+00  0.00000000E+00  0.00000000E+00
  0.00000000E+00  0.00000000E+00  0.00000000E+00
  0.00000000E+00  0.00000000E+00  0.00000000E+00
  0.00000000E+00  0.00000000E+00  0.00000000E+00
  0.00000000E+00  0.00000000E+00  0.00000000E+00
  0.00000000E+00  0.00000000E+00  0.00000000E+00
  0.00000000E+00  0.00000000E+00  0.00000000E+00
