Pt111                                   
   1.00000000000000     
    10.5600000059999992    0.0000000000000000    0.0000000000000000
     5.2800002098030001    9.1452286273900008    0.0000000000000000
     0.0000000000000000    0.0000000000000000   22.0000000000000000
   Pt
    80
Direct
  0.7842373905861990  0.8696881024617014  0.3353981464546507
  0.0342866316983006  0.8695784818127663  0.3356075473941260
  0.0342712931340401  0.6194095190618611  0.3357019384599909
  0.7875278653579301  0.8676044321606327  0.0065254399862340
  0.0375533410698949  0.8673873191292856  0.0067267300605707
  0.0376057549995963  0.6174349873187381  0.0069589563117489
  0.6196212043820424  0.2015529455854619  0.1175274625727525
  0.3697042875030405  0.9514807390170574  0.1177294594323826
  0.0340023265809961  0.3696495036214031  0.3357721885592113
  0.0376593768880653  0.3673714897783498  0.0069377762859588
  0.8696721243448948  0.2014751290437147  0.1176398843927089
  0.9520208017993710  0.5356326692932427  0.2267484385278991
  0.2840784163633856  0.1196649776519934  0.3357369286521603
  0.5340872566102135  0.6196913956397125  0.3356018070588433
  0.2839687185311348  0.3696774571067891  0.3358429700694572
  0.2875793840325258  0.1172925608994859  0.0069349893560045
  0.5377814444816593  0.6173821769851955  0.0066582506059589
  0.2876739959975794  0.3673217993741886  0.0071165380203979
  0.6196319221648210  0.9516216279859862  0.1175727031688822
  0.7021503631907606  0.7856674955315128  0.2264692020112733
  0.8697508569329742  0.7016874690407136  0.1176837928584149
  0.6198103697666326  0.4515808813086934  0.1176794921762294
  0.2842228328084389  0.8696591879648281  0.3356207790520784
  0.2875920397501446  0.8673775481605901  0.0066964500614191
  0.6198275405423885  0.7016089619476560  0.1176180977245309
  0.2017480554949174  0.0359015070661357  0.2266844842926332
  0.8669232217976699  0.9532858648944114  0.4464219798609150
  0.1167782507795962  0.4531763887485596  0.4469091709419999
  0.1169282106843212  0.9532731498034579  0.4465899348399631
  0.8667872471589320  0.4533355422950862  0.4466634875870454
  0.3669399989675100  0.9532281425649103  0.4466247481892225
  0.8668613396129601  0.2032947807479601  0.4463587734166339
  0.1168079514087310  0.2032386751508497  0.4467334088014638
  0.6168758717584453  0.9532974685777234  0.4463886333002094
  0.8669928854357565  0.7032250762260333  0.4465469092500101
  0.3667309563628578  0.2033616263431881  0.4468954204877349
  0.3668114058518412  0.7031968484988269  0.4467322057573000
  0.6167941479451073  0.4533545012795130  0.4466304820955642
  0.1168922540375448  0.7031718272808547  0.4467405855502022
  0.6168293184009670  0.2033424388500151  0.4464919998226833
  0.5339398570544773  0.3697915275689496  0.3355875204659213
  0.5376393909479162  0.3674587181747810  0.0067153063632688
  0.5340089355462823  0.1197835373362892  0.3355415518156875
  0.5375965631746027  0.1174310412147861  0.0065958484960191
  0.8698019928374521  0.4515219446633054  0.1178267701899642
  0.1196537203570145  0.4516327147880972  0.1180421517429124
  0.0341880736597844  0.1195920422772190  0.3355372567810662
  0.0374956182892703  0.1173493035495596  0.0067709917791348
  0.1195728888667915  0.9515324278439365  0.1177580426322322
  0.3667421649358289  0.4532528593858700  0.4468144244138088
  0.4519109703856117  0.5356873572518595  0.2267739057966267
  0.6168563878321223  0.7032970011554056  0.4464712137545988
  0.3697147630246960  0.2014785881231944  0.1179421147092228
  0.1194864749623221  0.2015698334493479  0.1178910631150316
  0.9520966235640387  0.7856518295313606  0.2266378745396267
  0.7841933582681975  0.6196205493973110  0.3355208922934807
  0.2841589963459157  0.6195161600591632  0.3357822326208861
  0.7877450438460372  0.6174286127050479  0.0066710570929871
  0.2876360288897217  0.6174004917652880  0.0070093983572761
  0.3699203563930453  0.7015685265447402  0.1178060881156355
  0.3698860494713756  0.4515431897722095  0.1179680683691302
  0.2015996011511234  0.2857617483738011  0.2269165022525783
  0.7839479294138627  0.3698142860435141  0.3355331425297834
  0.7876968600875429  0.3673289306779495  0.0066823488495729
  0.9518630630281777  0.0356694734537371  0.2265801892929247
  0.4519900587777812  0.7858031201532114  0.2265525727526665
  0.7021256096707233  0.5356291485083560  0.2266603100879152
  0.2018881672510133  0.7857304129190084  0.2267849332509115
  0.4517168017290203  0.0358994834922441  0.2267074763617458
  0.1196666849849066  0.7017138224472390  0.1179425857826644
  0.7019264363053352  0.0357515877847447  0.2264813308214713
  0.7840781404111752  0.1196796161210969  0.3353357554825251
  0.5341688258056791  0.8697948445473713  0.3354169065834327
  0.7875789281426435  0.1174827426101359  0.0064821487831992
  0.5376000262380742  0.8674459690034553  0.0066132856212562
  0.2018740810820461  0.5356682689199062  0.2269002259135178
  0.9518466810240156  0.2856462828794122  0.2266808613609967
  0.8696606814512009  0.9515648548830029  0.1175894507025248
  0.7019616859607893  0.2855368645573293  0.2264675812695600
  0.4517355336182334  0.2857096688576348  0.2267404714087675
 
  0.00000000E+00  0.00000000E+00  0.00000000E+00
  0.00000000E+00  0.00000000E+00  0.00000000E+00
  0.00000000E+00  0.00000000E+00  0.00000000E+00
  0.00000000E+00  0.00000000E+00  0.00000000E+00
  0.00000000E+00  0.00000000E+00  0.00000000E+00
  0.00000000E+00  0.00000000E+00  0.00000000E+00
  0.00000000E+00  0.00000000E+00  0.00000000E+00
  0.00000000E+00  0.00000000E+00  0.00000000E+00
  0.00000000E+00  0.00000000E+00  0.00000000E+00
  0.00000000E+00  0.00000000E+00  0.00000000E+00
  0.00000000E+00  0.00000000E+00  0.00000000E+00
  0.00000000E+00  0.00000000E+00  0.00000000E+00
  0.00000000E+00  0.00000000E+00  0.00000000E+00
  0.00000000E+00  0.00000000E+00  0.00000000E+00
  0.00000000E+00  0.00000000E+00  0.00000000E+00
  0.00000000E+00  0.00000000E+00  0.00000000E+00
  0.00000000E+00  0.00000000E+00  0.00000000E+00
  0.00000000E+00  0.00000000E+00  0.00000000E+00
  0.00000000E+00  0.00000000E+00  0.00000000E+00
  0.00000000E+00  0.00000000E+00  0.00000000E+00
  0.00000000E+00  0.00000000E+00  0.00000000E+00
  0.00000000E+00  0.00000000E+00  0.00000000E+00
  0.00000000E+00  0.00000000E+00  0.00000000E+00
  0.00000000E+00  0.00000000E+00  0.00000000E+00
  0.00000000E+00  0.00000000E+00  0.00000000E+00
  0.00000000E+00  0.00000000E+00  0.00000000E+00
  0.00000000E+00  0.00000000E+00  0.00000000E+00
  0.00000000E+00  0.00000000E+00  0.00000000E+00
  0.00000000E+00  0.00000000E+00  0.00000000E+00
  0.00000000E+00  0.00000000E+00  0.00000000E+00
  0.00000000E+00  0.00000000E+00  0.00000000E+00
  0.00000000E+00  0.00000000E+00  0.00000000E+00
  0.00000000E+00  0.00000000E+00  0.00000000E+00
  0.00000000E+00  0.00000000E+00  0.00000000E+00
  0.00000000E+00  0.00000000E+00  0.00000000E+00
  0.00000000E+00  0.00000000E+00  0.00000000E+00
  0.00000000E+00  0.00000000E+00  0.00000000E+00
  0.00000000E+00  0.00000000E+00  0.00000000E+00
  0.00000000E+00  0.00000000E+00  0.00000000E+00
  0.00000000E+00  0.00000000E+00  0.00000000E+00
  0.00000000E+00  0.00000000E+00  0.00000000E+00
  0.00000000E+00  0.00000000E+00  0.00000000E+00
  0.00000000E+00  0.00000000E+00  0.00000000E+00
  0.00000000E+00  0.00000000E+00  0.00000000E+00
  0.00000000E+00  0.00000000E+00  0.00000000E+00
  0.00000000E+00  0.00000000E+00  0.00000000E+00
  0.00000000E+00  0.00000000E+00  0.00000000E+00
  0.00000000E+00  0.00000000E+00  0.00000000E+00
  0.00000000E+00  0.00000000E+00  0.00000000E+00
  0.00000000E+00  0.00000000E+00  0.00000000E+00
  0.00000000E+00  0.00000000E+00  0.00000000E+00
  0.00000000E+00  0.00000000E+00  0.00000000E+00
  0.00000000E+00  0.00000000E+00  0.00000000E+00
  0.00000000E+00  0.00000000E+00  0.00000000E+00
  0.00000000E+00  0.00000000E+00  0.00000000E+00
  0.00000000E+00  0.00000000E+00  0.00000000E+00
  0.00000000E+00  0.00000000E+00  0.00000000E+00
  0.00000000E+00  0.00000000E+00  0.00000000E+00
  0.00000000E+00  0.00000000E+00  0.00000000E+00
  0.00000000E+00  0.00000000E+00  0.00000000E+00
  0.00000000E+00  0.00000000E+00  0.00000000E+00
  0.00000000E+00  0.00000000E+00  0.00000000E+00
  0.00000000E+00  0.00000000E+00  0.00000000E+00
  0.00000000E+00  0.00000000E+00  0.00000000E+00
  0.00000000E+00  0.00000000E+00  0.00000000E+00
  0.00000000E+00  0.00000000E+00  0.00000000E+00
  0.00000000E+00  0.00000000E+00  0.00000000E+00
  0.00000000E+00  0.00000000E+00  0.00000000E+00
  0.00000000E+00  0.00000000E+00  0.00000000E+00
  0.00000000E+00  0.00000000E+00  0.00000000E+00
  0.00000000E+00  0.00000000E+00  0.00000000E+00
  0.00000000E+00  0.00000000E+00  0.00000000E+00
  0.00000000E+00  0.00000000E+00  0.00000000E+00
  0.00000000E+00  0.00000000E+00  0.00000000E+00
  0.00000000E+00  0.00000000E+00  0.00000000E+00
  0.00000000E+00  0.00000000E+00  0.00000000E+00
  0.00000000E+00  0.00000000E+00  0.00000000E+00
  0.00000000E+00  0.00000000E+00  0.00000000E+00
  0.00000000E+00  0.00000000E+00  0.00000000E+00
  0.00000000E+00  0.00000000E+00  0.00000000E+00
