Pt111                                   
   1.00000000000000     
    10.9600000059999996    0.0000000000000000    0.0000000000000000
     5.4800000300000002    9.4916384585000007    0.0000000000000000
     0.0000000000000000    0.0000000000000000   22.0000000000000000
   Pt
    80
Direct
  0.7846468685441722  0.8693741393479952  0.3300444843658178
  0.0347179711476555  0.8692267453033025  0.3300855716829863
  0.0345580174900940  0.6193097944729821  0.3301789082961121
  0.7870978580896580  0.8676834895831493  0.0175551080709565
  0.0365898114262775  0.8682474888794479  0.0176740096792988
  0.0370631690440534  0.6178279937122674  0.0177755430929736
  0.6193808226345870  0.2017234999334264  0.1232113506925574
  0.3694142053987498  0.9517211965144433  0.1232376651452014
  0.0346404073406002  0.3693623783870074  0.3301698044866508
  0.0368080428566481  0.3677174255392406  0.0178198540020864
  0.8693786432383313  0.2017753048023777  0.1231583401916277
  0.9519523829221878  0.5356683939987100  0.2267123095098049
  0.2846367479522708  0.1193346105890297  0.3301359246898374
  0.5345942709468290  0.6193953221602185  0.3300864223127841
  0.2845690661687540  0.3693499626179881  0.3302380744984400
  0.2871409187577021  0.1177493437431392  0.0177353994200272
  0.5367289296213253  0.6179449009397097  0.0176977416979761
  0.2867175270920870  0.3680597598062395  0.0178148746135294
  0.6193250156716354  0.9517722670692675  0.1231683292728812
  0.7019505511875621  0.7856655950934427  0.2266026740305528
  0.8693741325059813  0.7017825918131081  0.1232522335688733
  0.6194118535558175  0.4517707276982783  0.1232345742456170
  0.2846384242797812  0.8693778786804843  0.3301226628201480
  0.2869272177075793  0.8677278066020661  0.0177084266345223
  0.6192905131452627  0.7018236585317744  0.1231896547979238
  0.2019503267098045  0.0356671426176527  0.2266803494116987
  0.8675911952276525  0.9529361439508234  0.4355254466373622
  0.1174453759535816  0.4530792956977077  0.4358677681233790
  0.1171916265892536  0.9528128687068933  0.4356644952034189
  0.8676583067201186  0.4527327326215937  0.4356589439666413
  0.3669983867944336  0.9530865454944131  0.4357329977516683
  0.8673298346771570  0.2031250146800015  0.4356789059478526
  0.1174278714782901  0.2030360965281353  0.4357204944394599
  0.6174991351848670  0.9530036602458264  0.4355912168969470
  0.8670133499442367  0.7029586657514261  0.4356599987318889
  0.3675117122060459  0.2026575037789455  0.4357630060368711
  0.3676019656401613  0.7029834370001917  0.4357208613111964
  0.6172823674974202  0.4528758458937855  0.4356312347240156
  0.1173992755471966  0.7027562952055880  0.4357448307308083
  0.6172776895565503  0.2030740995739713  0.4355738300288224
  0.5344333977037856  0.3694873481400595  0.3301002942978463
  0.5372796270646680  0.3676031640857636  0.0176732709202659
  0.5346297911856640  0.1193746445080204  0.3300770764238442
  0.5368246148205895  0.1180063251657109  0.0176312469251538
  0.8693323350936434  0.4518093544388444  0.1233054167061472
  0.1193415706138348  0.4517818599576752  0.1233799721059721
  0.0346297674271417  0.1193242634487544  0.3301407412441464
  0.0370328725033032  0.1177477639156646  0.0176148790844428
  0.1193103000808872  0.9518040533833492  0.1232741893303841
  0.3671617727401887  0.4530419487007947  0.4358400714765971
  0.4519721792938751  0.5356681996720338  0.2266954131587390
  0.6173848265329849  0.7028997652688170  0.4356572312743572
  0.3693561222565778  0.2018258778968613  0.1233434851103569
  0.1193731439529207  0.2017152411226610  0.1232924417277307
  0.9519970687975376  0.7856194103537506  0.2266695380734345
  0.7845670576029593  0.6193191771912298  0.3300700001929039
  0.2846208056768675  0.6193432893767599  0.3301928427243502
  0.7868345821136953  0.6180171535418046  0.0176503143849017
  0.2869405835873796  0.6178112473213260  0.0177363853607150
  0.3693056680780465  0.7017794886882854  0.1233226977514148
  0.3694642384701762  0.4517536524377152  0.1233128077991604
  0.2019073218281033  0.2856702843559860  0.2267586087232576
  0.7845362060272997  0.3693851791033619  0.3300906775262028
  0.7869663078748196  0.3680578073982602  0.0175951518071114
  0.9519549128663045  0.0356493342840933  0.2266442994192040
  0.4520023468571365  0.7856979547197935  0.2266447995472761
  0.7019378007574600  0.5356631631444486  0.2266486902138700
  0.2020088035490120  0.7856380017810075  0.2267156144938683
  0.4519531034277710  0.0356449661426149  0.2266795113378560
  0.1193058352678321  0.7018768872819943  0.1232991135440546
  0.7019447177145390  0.0356311794289533  0.2266018991466135
  0.7846202037311539  0.1194269948333085  0.3300350047644630
  0.5346164648826731  0.8694038660615152  0.3301234134401781
  0.7868486008713707  0.1178886041147120  0.0175106997603854
  0.5370141064610222  0.8679638964013507  0.0175374262522844
  0.2019950914863115  0.5356569335385291  0.2267525199908459
  0.9519234253410723  0.2856164491865653  0.2266882788130191
  0.8692452201777726  0.9518367591118535  0.1232164646303356
  0.7019629621529678  0.2856303989875388  0.2265983600571526
  0.4519211646762938  0.2856725669421665  0.2267048746979307
 
  0.00000000E+00  0.00000000E+00  0.00000000E+00
  0.00000000E+00  0.00000000E+00  0.00000000E+00
  0.00000000E+00  0.00000000E+00  0.00000000E+00
  0.00000000E+00  0.00000000E+00  0.00000000E+00
  0.00000000E+00  0.00000000E+00  0.00000000E+00
  0.00000000E+00  0.00000000E+00  0.00000000E+00
  0.00000000E+00  0.00000000E+00  0.00000000E+00
  0.00000000E+00  0.00000000E+00  0.00000000E+00
  0.00000000E+00  0.00000000E+00  0.00000000E+00
  0.00000000E+00  0.00000000E+00  0.00000000E+00
  0.00000000E+00  0.00000000E+00  0.00000000E+00
  0.00000000E+00  0.00000000E+00  0.00000000E+00
  0.00000000E+00  0.00000000E+00  0.00000000E+00
  0.00000000E+00  0.00000000E+00  0.00000000E+00
  0.00000000E+00  0.00000000E+00  0.00000000E+00
  0.00000000E+00  0.00000000E+00  0.00000000E+00
  0.00000000E+00  0.00000000E+00  0.00000000E+00
  0.00000000E+00  0.00000000E+00  0.00000000E+00
  0.00000000E+00  0.00000000E+00  0.00000000E+00
  0.00000000E+00  0.00000000E+00  0.00000000E+00
  0.00000000E+00  0.00000000E+00  0.00000000E+00
  0.00000000E+00  0.00000000E+00  0.00000000E+00
  0.00000000E+00  0.00000000E+00  0.00000000E+00
  0.00000000E+00  0.00000000E+00  0.00000000E+00
  0.00000000E+00  0.00000000E+00  0.00000000E+00
  0.00000000E+00  0.00000000E+00  0.00000000E+00
  0.00000000E+00  0.00000000E+00  0.00000000E+00
  0.00000000E+00  0.00000000E+00  0.00000000E+00
  0.00000000E+00  0.00000000E+00  0.00000000E+00
  0.00000000E+00  0.00000000E+00  0.00000000E+00
  0.00000000E+00  0.00000000E+00  0.00000000E+00
  0.00000000E+00  0.00000000E+00  0.00000000E+00
  0.00000000E+00  0.00000000E+00  0.00000000E+00
  0.00000000E+00  0.00000000E+00  0.00000000E+00
  0.00000000E+00  0.00000000E+00  0.00000000E+00
  0.00000000E+00  0.00000000E+00  0.00000000E+00
  0.00000000E+00  0.00000000E+00  0.00000000E+00
  0.00000000E+00  0.00000000E+00  0.00000000E+00
  0.00000000E+00  0.00000000E+00  0.00000000E+00
  0.00000000E+00  0.00000000E+00  0.00000000E+00
  0.00000000E+00  0.00000000E+00  0.00000000E+00
  0.00000000E+00  0.00000000E+00  0.00000000E+00
  0.00000000E+00  0.00000000E+00  0.00000000E+00
  0.00000000E+00  0.00000000E+00  0.00000000E+00
  0.00000000E+00  0.00000000E+00  0.00000000E+00
  0.00000000E+00  0.00000000E+00  0.00000000E+00
  0.00000000E+00  0.00000000E+00  0.00000000E+00
  0.00000000E+00  0.00000000E+00  0.00000000E+00
  0.00000000E+00  0.00000000E+00  0.00000000E+00
  0.00000000E+00  0.00000000E+00  0.00000000E+00
  0.00000000E+00  0.00000000E+00  0.00000000E+00
  0.00000000E+00  0.00000000E+00  0.00000000E+00
  0.00000000E+00  0.00000000E+00  0.00000000E+00
  0.00000000E+00  0.00000000E+00  0.00000000E+00
  0.00000000E+00  0.00000000E+00  0.00000000E+00
  0.00000000E+00  0.00000000E+00  0.00000000E+00
  0.00000000E+00  0.00000000E+00  0.00000000E+00
  0.00000000E+00  0.00000000E+00  0.00000000E+00
  0.00000000E+00  0.00000000E+00  0.00000000E+00
  0.00000000E+00  0.00000000E+00  0.00000000E+00
  0.00000000E+00  0.00000000E+00  0.00000000E+00
  0.00000000E+00  0.00000000E+00  0.00000000E+00
  0.00000000E+00  0.00000000E+00  0.00000000E+00
  0.00000000E+00  0.00000000E+00  0.00000000E+00
  0.00000000E+00  0.00000000E+00  0.00000000E+00
  0.00000000E+00  0.00000000E+00  0.00000000E+00
  0.00000000E+00  0.00000000E+00  0.00000000E+00
  0.00000000E+00  0.00000000E+00  0.00000000E+00
  0.00000000E+00  0.00000000E+00  0.00000000E+00
  0.00000000E+00  0.00000000E+00  0.00000000E+00
  0.00000000E+00  0.00000000E+00  0.00000000E+00
  0.00000000E+00  0.00000000E+00  0.00000000E+00
  0.00000000E+00  0.00000000E+00  0.00000000E+00
  0.00000000E+00  0.00000000E+00  0.00000000E+00
  0.00000000E+00  0.00000000E+00  0.00000000E+00
  0.00000000E+00  0.00000000E+00  0.00000000E+00
  0.00000000E+00  0.00000000E+00  0.00000000E+00
  0.00000000E+00  0.00000000E+00  0.00000000E+00
  0.00000000E+00  0.00000000E+00  0.00000000E+00
  0.00000000E+00  0.00000000E+00  0.00000000E+00
