Pt111                                   
   1.00000000000000     
    10.6599999990000001    0.0000000000000000    0.0000000000000000
     5.3299999237000000    9.2318306721900001    0.0000000000000000
     0.0000000000000000    0.0000000000000000   22.0000000000000000
   Pt
    80
Direct
  0.7842787055280098  0.8695610919638455  0.3340384294680234
  0.0343194870187133  0.8695558961939653  0.3341911286519519
  0.0343830116626549  0.6194211118916471  0.3343593152083457
  0.7871968569143064  0.8678174004655332  0.0092073416613090
  0.0374273649985071  0.8675423156610478  0.0093889133021392
  0.0373176935385118  0.6176401968173479  0.0095661226872608
  0.6196797328374331  0.2016481588785126  0.1189840460631615
  0.3696708849074852  0.9515954455825124  0.1191178650869205
  0.0342145892796424  0.3695333792760280  0.3344178610053419
  0.0374762302072398  0.3676261562837908  0.0096128681656680
  0.8695792018703372  0.2015810403440383  0.1189545896779833
  0.9518186801258821  0.5356260149835208  0.2267428543403867
  0.2842489779577093  0.1195608959223833  0.3343526910189567
  0.5342311221871370  0.6196086918373425  0.3341726375472902
  0.2841523371406538  0.3696485293259570  0.3345243307420702
  0.2871609522155794  0.1177360353602595  0.0095588718722368
  0.5374824719767872  0.6176300892084043  0.0093997406100996
  0.2873802916374046  0.3675473272107226  0.0096688271651644
  0.6195694962803699  0.9516256221787458  0.1189828490164331
  0.7018367272750154  0.7856758908147796  0.2264954916519812
  0.8697034055796067  0.7016397066990905  0.1190631089987235
  0.6197447662168827  0.4515848386234325  0.1190827025095516
  0.2843738665779583  0.8695301306680818  0.3342145707528417
  0.2872343086445568  0.8677238876595368  0.0094143431798415
  0.6197244080887572  0.7016273387585557  0.1190441478834430
  0.2018101623324000  0.0356654783270542  0.2266926983802549
  0.8670658439872696  0.9530832653734365  0.4437894244756251
  0.1170034105146769  0.4530586431063526  0.4442725406705605
  0.1171801841004410  0.9531603531193866  0.4439569064061004
  0.8670745689336741  0.4531309681656879  0.4440096645225182
  0.3672648808308594  0.9530168891464825  0.4439995481076764
  0.8671224272070504  0.2031370702601691  0.4438567372205640
  0.1170111234967735  0.2031598639277448  0.4440834123400350
  0.6170443163483625  0.9531475714804003  0.4438295356819495
  0.8672545158229994  0.7031416375793640  0.4439101721376275
  0.3670811679997570  0.2032628934651299  0.4441754139230198
  0.3669641411911826  0.7031753727881451  0.4440420929553426
  0.6171015348647444  0.4531350017559816  0.4439487101982706
  0.1169870087396205  0.7032239520455761  0.4440761184338555
  0.6170614794036595  0.2031710181609796  0.4438063874867382
  0.5342974985318634  0.3695643435925575  0.3342029802259461
  0.5372947960845877  0.3677226174821016  0.0093819253273892
  0.5342575616282090  0.1195842747122100  0.3341848542956143
  0.5374473238368438  0.1176091912518658  0.0093150044819481
  0.8696846988459441  0.4516257835655964  0.1191287592380519
  0.1197793908620710  0.4516288178300769  0.1193387429241213
  0.0343076046769042  0.1195362660458912  0.3342251099520368
  0.0373505625045141  0.1176758884743663  0.0093783785507711
  0.1195959748915811  0.9515877582835515  0.1190987585550403
  0.3671935098142285  0.4530035270002415  0.4442066503511342
  0.4518576541448951  0.5356768273918249  0.2267199176079160
  0.6170049806016635  0.7032167784197370  0.4438617407950716
  0.3696916812092681  0.2015118871275803  0.1192535526558416
  0.1196563887713609  0.2016162112999638  0.1192605638691759
  0.9519301474527424  0.7856591111087710  0.2266254474736797
  0.7842677418973665  0.6195846792364677  0.3341609289404346
  0.2842445815377772  0.6194939639738379  0.3343899023159054
  0.7873333839626824  0.6176556799205954  0.0093597256347664
  0.2872270948464219  0.6177044965561507  0.0095870256971367
  0.3697671611818407  0.7016481411623516  0.1191783332920551
  0.3697188660048099  0.4515764781980067  0.1192796041254098
  0.2017386079239429  0.2856636557882695  0.2269099451337340
  0.7842320889155516  0.3695645033551713  0.3341812636167347
  0.7873263210208847  0.3676217871393561  0.0093056947146621
  0.9518180442610529  0.0355859225227633  0.2265301168725813
  0.4519392774867939  0.7856505114724825  0.2265908704395798
  0.7017960683010926  0.5357191051834178  0.2266087721776060
  0.2018885940470838  0.7856073472565512  0.2267427609647115
  0.4517756823415340  0.0356864679019395  0.2266609561267714
  0.1196747434791661  0.7015866554665138  0.1192331675585905
  0.7017264024194816  0.0357201706322741  0.2264490301266164
  0.7842911059516595  0.1195443578721935  0.3340296709780191
  0.5343255053792291  0.8695262357666138  0.3340894472938203
  0.7873356038371142  0.1176961102748564  0.0091661439616715
  0.5373660848223736  0.8675861262484332  0.0092743096505643
  0.2019208593220583  0.5356562561333646  0.2268790816128927
  0.9517477873941189  0.2856528253476327  0.2266912182085861
  0.8696622165402488  0.9516507663156233  0.1189467277179972
  0.7017159261655124  0.2856731976313043  0.2264806364210159
  0.4517668506629349  0.2856901827464853  0.2267373149071261
 
  0.00000000E+00  0.00000000E+00  0.00000000E+00
  0.00000000E+00  0.00000000E+00  0.00000000E+00
  0.00000000E+00  0.00000000E+00  0.00000000E+00
  0.00000000E+00  0.00000000E+00  0.00000000E+00
  0.00000000E+00  0.00000000E+00  0.00000000E+00
  0.00000000E+00  0.00000000E+00  0.00000000E+00
  0.00000000E+00  0.00000000E+00  0.00000000E+00
  0.00000000E+00  0.00000000E+00  0.00000000E+00
  0.00000000E+00  0.00000000E+00  0.00000000E+00
  0.00000000E+00  0.00000000E+00  0.00000000E+00
  0.00000000E+00  0.00000000E+00  0.00000000E+00
  0.00000000E+00  0.00000000E+00  0.00000000E+00
  0.00000000E+00  0.00000000E+00  0.00000000E+00
  0.00000000E+00  0.00000000E+00  0.00000000E+00
  0.00000000E+00  0.00000000E+00  0.00000000E+00
  0.00000000E+00  0.00000000E+00  0.00000000E+00
  0.00000000E+00  0.00000000E+00  0.00000000E+00
  0.00000000E+00  0.00000000E+00  0.00000000E+00
  0.00000000E+00  0.00000000E+00  0.00000000E+00
  0.00000000E+00  0.00000000E+00  0.00000000E+00
  0.00000000E+00  0.00000000E+00  0.00000000E+00
  0.00000000E+00  0.00000000E+00  0.00000000E+00
  0.00000000E+00  0.00000000E+00  0.00000000E+00
  0.00000000E+00  0.00000000E+00  0.00000000E+00
  0.00000000E+00  0.00000000E+00  0.00000000E+00
  0.00000000E+00  0.00000000E+00  0.00000000E+00
  0.00000000E+00  0.00000000E+00  0.00000000E+00
  0.00000000E+00  0.00000000E+00  0.00000000E+00
  0.00000000E+00  0.00000000E+00  0.00000000E+00
  0.00000000E+00  0.00000000E+00  0.00000000E+00
  0.00000000E+00  0.00000000E+00  0.00000000E+00
  0.00000000E+00  0.00000000E+00  0.00000000E+00
  0.00000000E+00  0.00000000E+00  0.00000000E+00
  0.00000000E+00  0.00000000E+00  0.00000000E+00
  0.00000000E+00  0.00000000E+00  0.00000000E+00
  0.00000000E+00  0.00000000E+00  0.00000000E+00
  0.00000000E+00  0.00000000E+00  0.00000000E+00
  0.00000000E+00  0.00000000E+00  0.00000000E+00
  0.00000000E+00  0.00000000E+00  0.00000000E+00
  0.00000000E+00  0.00000000E+00  0.00000000E+00
  0.00000000E+00  0.00000000E+00  0.00000000E+00
  0.00000000E+00  0.00000000E+00  0.00000000E+00
  0.00000000E+00  0.00000000E+00  0.00000000E+00
  0.00000000E+00  0.00000000E+00  0.00000000E+00
  0.00000000E+00  0.00000000E+00  0.00000000E+00
  0.00000000E+00  0.00000000E+00  0.00000000E+00
  0.00000000E+00  0.00000000E+00  0.00000000E+00
  0.00000000E+00  0.00000000E+00  0.00000000E+00
  0.00000000E+00  0.00000000E+00  0.00000000E+00
  0.00000000E+00  0.00000000E+00  0.00000000E+00
  0.00000000E+00  0.00000000E+00  0.00000000E+00
  0.00000000E+00  0.00000000E+00  0.00000000E+00
  0.00000000E+00  0.00000000E+00  0.00000000E+00
  0.00000000E+00  0.00000000E+00  0.00000000E+00
  0.00000000E+00  0.00000000E+00  0.00000000E+00
  0.00000000E+00  0.00000000E+00  0.00000000E+00
  0.00000000E+00  0.00000000E+00  0.00000000E+00
  0.00000000E+00  0.00000000E+00  0.00000000E+00
  0.00000000E+00  0.00000000E+00  0.00000000E+00
  0.00000000E+00  0.00000000E+00  0.00000000E+00
  0.00000000E+00  0.00000000E+00  0.00000000E+00
  0.00000000E+00  0.00000000E+00  0.00000000E+00
  0.00000000E+00  0.00000000E+00  0.00000000E+00
  0.00000000E+00  0.00000000E+00  0.00000000E+00
  0.00000000E+00  0.00000000E+00  0.00000000E+00
  0.00000000E+00  0.00000000E+00  0.00000000E+00
  0.00000000E+00  0.00000000E+00  0.00000000E+00
  0.00000000E+00  0.00000000E+00  0.00000000E+00
  0.00000000E+00  0.00000000E+00  0.00000000E+00
  0.00000000E+00  0.00000000E+00  0.00000000E+00
  0.00000000E+00  0.00000000E+00  0.00000000E+00
  0.00000000E+00  0.00000000E+00  0.00000000E+00
  0.00000000E+00  0.00000000E+00  0.00000000E+00
  0.00000000E+00  0.00000000E+00  0.00000000E+00
  0.00000000E+00  0.00000000E+00  0.00000000E+00
  0.00000000E+00  0.00000000E+00  0.00000000E+00
  0.00000000E+00  0.00000000E+00  0.00000000E+00
  0.00000000E+00  0.00000000E+00  0.00000000E+00
  0.00000000E+00  0.00000000E+00  0.00000000E+00
  0.00000000E+00  0.00000000E+00  0.00000000E+00
