Pt111                                   
   1.00000000000000     
    11.2227001190000006    0.0000000000000000    0.0000000000000000
     5.6113500595000003    9.7191434021000003    0.0000000000000000
     0.0000000000000000    0.0000000000000000   22.0000000000000000
   Pt   H 
    80     1
Selective dynamics
Direct
  0.7847698747093897  0.8693403965275358  0.3268984148473933   T   T   T
  0.0347410048905970  0.8695269307942584  0.3270143166971270   T   T   T
  0.0349464273850150  0.6194036055781774  0.3270751321723756   T   T   T
  0.7877823445571792  0.8670808116051774  0.0232283754500031   F   F   F
  0.0374189139465813  0.8678257128789326  0.0234304415681805   F   F   F
  0.0373322342602336  0.6174421460232153  0.0235851769636355   F   F   F
  0.6196700208836674  0.2016706913467772  0.1262028172181786   F   F   F
  0.3696667899435369  0.9516547613652406  0.1262923522909105   F   F   F
  0.0346957286670653  0.3695877803958838  0.3271308877490253   T   T   T
  0.0372639361192313  0.3676454605585846  0.0236796519636329   F   F   F
  0.8697526374307927  0.2020118507641087  0.1263251728090893   F   F   F
  0.9518794453636072  0.5356302420717493  0.2268192196458747   T   T   T
  0.2848131954866246  0.1196104671466588  0.3271213146422916   T   T   T
  0.5343899736358121  0.6195552612566521  0.3282800651549717   T   T   T
  0.2852616887526406  0.3699220554073094  0.3275396616358902   T   T   T
  0.2879023679735013  0.1175834067180332  0.0234926877227295   F   F   F
  0.5368647565825952  0.6174166658250400  0.0232058141090903   F   F   F
  0.2871568024506317  0.3677685875205512  0.0236071656409109   F   F   F
  0.6195013167109238  0.9515151321362154  0.1261890620318198   F   F   F
  0.7017599589834719  0.7854677686948041  0.2265785420803968   T   T   T
  0.8691113435502942  0.7016533067025748  0.1263323943545487   F   F   F
  0.6190601391480044  0.4520350780862756  0.1262751496909118   F   F   F
  0.2849071043957432  0.8692143347352385  0.3274663567439726   T   T   T
  0.2874523635700967  0.8677275962692121  0.0232872904090939   F   F   F
  0.6188434323916709  0.7016322506185659  0.1261512333954542   F   F   F
  0.2019499129113856  0.0359338089621969  0.2266897124755918   T   T   T
  0.8675186497891875  0.9533141777366724  0.4300914143174762   T   T   T
  0.1169340664043746  0.4533333507911179  0.4301921665316079   T   T   T
  0.1162899067056631  0.9545240552216899  0.4301620150745732   T   T   T
  0.8683224507672569  0.4532974143127154  0.4301928258793777   T   T   T
  0.3676644690739939  0.9544937474083839  0.4301892544855187   T   T   T
  0.8680061788359282  0.2027097883328402  0.4301643715752023   T   T   T
  0.1175370879255711  0.2034082125333156  0.4299697580647283   T   T   T
  0.6177408647537095  0.9533440716643290  0.4300897349737695   T   T   T
  0.8677700276236732  0.7030356980714009  0.4301175563517063   T   T   T
  0.3678382763285779  0.2027654631654255  0.4301888147796752   T   T   T
  0.3643392323008959  0.7095806133042828  0.4321350078821022   T   T   T
  0.6224987336140543  0.4510995185271112  0.4322170116342198   T   T   T
  0.1144129339169965  0.7050425556469784  0.4302372909458848   T   T   T
  0.6189181445916644  0.2005253823477988  0.4302286468410402   T   T   T
  0.5345952759075098  0.3699645176836152  0.3282651222180283   T   T   T
  0.5374204721475664  0.3672202759276928  0.0233621174999996   F   F   F
  0.5349879012318064  0.1194964449486523  0.3270156784869093   T   T   T
  0.5376648772452270  0.1174060813480153  0.0233128439863606   F   F   F
  0.8692455338353398  0.4518739258287994  0.1263950536318177   F   F   F
  0.1194358391914676  0.4518368818749110  0.1266082093818213   F   F   F
  0.0345785725679332  0.1196470292052005  0.3270685456418166   T   T   T
  0.0377918282934147  0.1177576625068326  0.0234997229681824   F   F   F
  0.1197035971170948  0.9518153428419609  0.1263219517136349   F   F   F
  0.3649456403665749  0.4513655544093648  0.4322476914076963   T   T   T
  0.4518960270829401  0.5357839839941742  0.2273721422638208   T   T   T
  0.6190300799339692  0.7051876078253380  0.4302338316531982   T   T   T
  0.3698465057015170  0.2018257351338377  0.1265096085409070   F   F   F
  0.1199014270121594  0.2018933921765154  0.1264670229363603   F   F   F
  0.9519602805124596  0.7856238839954007  0.2266634929524941   T   T   T
  0.7845381518591518  0.6194145678739575  0.3270521746786800   T   T   T
  0.2850669942593566  0.6196063551914188  0.3282704124397987   T   T   T
  0.7871133338516003  0.6174546998456023  0.0232699033863639   F   F   F
  0.2871024521542793  0.6174712599469743  0.0234179754500019   F   F   F
  0.3689603496074838  0.7018763462967357  0.1263263623909125   F   F   F
  0.3693363278021309  0.4518405706362074  0.1265326674363649   F   F   F
  0.2021430556253217  0.2856546496140812  0.2268628043667566   T   T   T
  0.7838898880780526  0.3699313747582603  0.3274326850317992   T   T   T
  0.7872800860235785  0.3674893133615313  0.0233192888772749   F   F   F
  0.9519905548079867  0.0358188592553138  0.2266630841068942   T   T   T
  0.4517446184100150  0.7854109121714463  0.2268705476962501   T   T   T
  0.7015121114661623  0.5356426036196392  0.2268559310193542   T   T   T
  0.2022082584411063  0.7855054680573411  0.2269347090149980   T   T   T
  0.4519602991259088  0.0356706334582293  0.2267345317629674   T   T   T
  0.1191333629211115  0.7018294153295628  0.1264430731227293   F   F   F
  0.7020153746989621  0.0356361547605910  0.2265695081736361   T   T   T
  0.7845598175728945  0.1196130567472751  0.3269805226073937   T   T   T
  0.5347435526767523  0.8694453988518879  0.3270029458453458   T   T   T
  0.7878922158176707  0.1173367308227569  0.0233108066363670   F   F   F
  0.5375340891822233  0.8675428119702531  0.0231056558545433   F   F   F
  0.2023532163579883  0.5356714388303413  0.2270366678413425   T   T   T
  0.9520839340973096  0.2857533387265305  0.2267407545935071   T   T   T
  0.8695619235624648  0.9516372471571444  0.1262508714045438   F   F   F
  0.7017314447823486  0.2860442166921178  0.2268041210474911   T   T   T
  0.4521267088065088  0.2860492371510550  0.2269576201247287   T   T   T
  0.4505924670125052  0.5396846344040057  0.4700640941445279   T   T   T
 
  0.00000000E+00  0.00000000E+00  0.00000000E+00
  0.00000000E+00  0.00000000E+00  0.00000000E+00
  0.00000000E+00  0.00000000E+00  0.00000000E+00
  0.00000000E+00  0.00000000E+00  0.00000000E+00
  0.00000000E+00  0.00000000E+00  0.00000000E+00
  0.00000000E+00  0.00000000E+00  0.00000000E+00
  0.00000000E+00  0.00000000E+00  0.00000000E+00
  0.00000000E+00  0.00000000E+00  0.00000000E+00
  0.00000000E+00  0.00000000E+00  0.00000000E+00
  0.00000000E+00  0.00000000E+00  0.00000000E+00
  0.00000000E+00  0.00000000E+00  0.00000000E+00
  0.00000000E+00  0.00000000E+00  0.00000000E+00
  0.00000000E+00  0.00000000E+00  0.00000000E+00
  0.00000000E+00  0.00000000E+00  0.00000000E+00
  0.00000000E+00  0.00000000E+00  0.00000000E+00
  0.00000000E+00  0.00000000E+00  0.00000000E+00
  0.00000000E+00  0.00000000E+00  0.00000000E+00
  0.00000000E+00  0.00000000E+00  0.00000000E+00
  0.00000000E+00  0.00000000E+00  0.00000000E+00
  0.00000000E+00  0.00000000E+00  0.00000000E+00
  0.00000000E+00  0.00000000E+00  0.00000000E+00
  0.00000000E+00  0.00000000E+00  0.00000000E+00
  0.00000000E+00  0.00000000E+00  0.00000000E+00
  0.00000000E+00  0.00000000E+00  0.00000000E+00
  0.00000000E+00  0.00000000E+00  0.00000000E+00
  0.00000000E+00  0.00000000E+00  0.00000000E+00
  0.00000000E+00  0.00000000E+00  0.00000000E+00
  0.00000000E+00  0.00000000E+00  0.00000000E+00
  0.00000000E+00  0.00000000E+00  0.00000000E+00
  0.00000000E+00  0.00000000E+00  0.00000000E+00
  0.00000000E+00  0.00000000E+00  0.00000000E+00
  0.00000000E+00  0.00000000E+00  0.00000000E+00
  0.00000000E+00  0.00000000E+00  0.00000000E+00
  0.00000000E+00  0.00000000E+00  0.00000000E+00
  0.00000000E+00  0.00000000E+00  0.00000000E+00
  0.00000000E+00  0.00000000E+00  0.00000000E+00
  0.00000000E+00  0.00000000E+00  0.00000000E+00
  0.00000000E+00  0.00000000E+00  0.00000000E+00
  0.00000000E+00  0.00000000E+00  0.00000000E+00
  0.00000000E+00  0.00000000E+00  0.00000000E+00
  0.00000000E+00  0.00000000E+00  0.00000000E+00
  0.00000000E+00  0.00000000E+00  0.00000000E+00
  0.00000000E+00  0.00000000E+00  0.00000000E+00
  0.00000000E+00  0.00000000E+00  0.00000000E+00
  0.00000000E+00  0.00000000E+00  0.00000000E+00
  0.00000000E+00  0.00000000E+00  0.00000000E+00
  0.00000000E+00  0.00000000E+00  0.00000000E+00
  0.00000000E+00  0.00000000E+00  0.00000000E+00
  0.00000000E+00  0.00000000E+00  0.00000000E+00
  0.00000000E+00  0.00000000E+00  0.00000000E+00
  0.00000000E+00  0.00000000E+00  0.00000000E+00
  0.00000000E+00  0.00000000E+00  0.00000000E+00
  0.00000000E+00  0.00000000E+00  0.00000000E+00
  0.00000000E+00  0.00000000E+00  0.00000000E+00
  0.00000000E+00  0.00000000E+00  0.00000000E+00
  0.00000000E+00  0.00000000E+00  0.00000000E+00
  0.00000000E+00  0.00000000E+00  0.00000000E+00
  0.00000000E+00  0.00000000E+00  0.00000000E+00
  0.00000000E+00  0.00000000E+00  0.00000000E+00
  0.00000000E+00  0.00000000E+00  0.00000000E+00
  0.00000000E+00  0.00000000E+00  0.00000000E+00
  0.00000000E+00  0.00000000E+00  0.00000000E+00
  0.00000000E+00  0.00000000E+00  0.00000000E+00
  0.00000000E+00  0.00000000E+00  0.00000000E+00
  0.00000000E+00  0.00000000E+00  0.00000000E+00
  0.00000000E+00  0.00000000E+00  0.00000000E+00
  0.00000000E+00  0.00000000E+00  0.00000000E+00
  0.00000000E+00  0.00000000E+00  0.00000000E+00
  0.00000000E+00  0.00000000E+00  0.00000000E+00
  0.00000000E+00  0.00000000E+00  0.00000000E+00
  0.00000000E+00  0.00000000E+00  0.00000000E+00
  0.00000000E+00  0.00000000E+00  0.00000000E+00
  0.00000000E+00  0.00000000E+00  0.00000000E+00
  0.00000000E+00  0.00000000E+00  0.00000000E+00
  0.00000000E+00  0.00000000E+00  0.00000000E+00
  0.00000000E+00  0.00000000E+00  0.00000000E+00
  0.00000000E+00  0.00000000E+00  0.00000000E+00
  0.00000000E+00  0.00000000E+00  0.00000000E+00
  0.00000000E+00  0.00000000E+00  0.00000000E+00
  0.00000000E+00  0.00000000E+00  0.00000000E+00
  0.00000000E+00  0.00000000E+00  0.00000000E+00
