Pt111                                   
   1.00000000000000     
    11.2227001190000006    0.0000000000000000    0.0000000000000000
     5.6113500595000003    9.7191434021000003    0.0000000000000000
     0.0000000000000000    0.0000000000000000   22.0000000000000000
   Pt   H 
    80     2
Direct
  0.7852511105105890  0.8692472064804124  0.3265330436903495
  0.0353473534498076  0.8688790373751752  0.3265823524460884
  0.0354210704264762  0.6187181798612867  0.3263456149766080
  0.7857862598809384  0.8684089813833943  0.0224207557053762
  0.0360037067359175  0.8683084264393310  0.0225289386374236
  0.0358923532028877  0.6185394278230338  0.0223923781038482
  0.6187918276597426  0.2022385616212604  0.1259599911270667
  0.3691304574184446  0.9513387459144512  0.1259486809996380
  0.0347404249273161  0.3689271572702320  0.3260890746874383
  0.0355516400820347  0.3687928767925643  0.0226147952166458
  0.8683187976293704  0.2020625455540545  0.1259472230208669
  0.9522408233695195  0.5353485585441766  0.2258642460355376
  0.2849951338683436  0.1185984640186986  0.3261056753582884
  0.5352236880327197  0.6191354950150749  0.3285562292753217
  0.2850653948269830  0.3690074754614628  0.3263537472265286
  0.2861991092941639  0.1181316740503071  0.0226438626031062
  0.5358204420604383  0.6183417254804486  0.0228849166134678
  0.2858719992048369  0.3684870268586851  0.0226916429560301
  0.6190351656489060  0.9519385517779769  0.1257607687496285
  0.7019986824868151  0.7854728633712595  0.2263242059540105
  0.8688338707085954  0.7021381609081445  0.1257298553982854
  0.6185780401981469  0.4522941244981689  0.1263765221403358
  0.2860480125129993  0.8672761566699225  0.3275314962649664
  0.2858710578876174  0.8683324166439447  0.0227093473197972
  0.6187974607949476  0.7019882801900826  0.1261166804245886
  0.2018362074987549  0.0353358616472239  0.2260115699698040
  0.8686467782589120  0.9528246047130092  0.4301340370483088
  0.1169766555250689  0.4521962791658775  0.4296665042752302
  0.1176612690796585  0.9531086976973984  0.4301575968405789
  0.8710411447359316  0.4509151468481422  0.4297352648050539
  0.3666630180456101  0.9553116608661700  0.4297601074933792
  0.8688465225419977  0.2019372962123030  0.4301852749644163
  0.1178051968028790  0.2020844253252409  0.4297457896501068
  0.6184414333512936  0.9538825509075983  0.4299884719167656
  0.8696299328574019  0.7027085385845884  0.4299448610731388
  0.3679974771813749  0.2012422285073739  0.4296818397027956
  0.3643795594729951  0.7066670733470228  0.4345717922295426
  0.6225447289612969  0.4485262035663911  0.4344177040191639
  0.1153540998934521  0.7044237733878093  0.4299830121577183
  0.6201810240228743  0.1995534851901093  0.4300294269591161
  0.5346977696364523  0.3698684203953587  0.3280454652396638
  0.5359145152717949  0.3685402222522425  0.0227524288190062
  0.5348432126166873  0.1192735798631672  0.3263644001617685
  0.5360294944100699  0.1183926243092611  0.0224030748237067
  0.8682404141252458  0.4521961439294164  0.1259504234028044
  0.1189303461456071  0.4522435757330407  0.1256236813880673
  0.0349948858032189  0.1188159930196954  0.3263866347570168
  0.0356622429345667  0.1181731438109461  0.0226021251834945
  0.1188966627823734  0.9514689817471064  0.1259680075409918
  0.3635479111925860  0.4478141301204457  0.4317543691999470
  0.4519307684606542  0.5355672844622266  0.2272921279788978
  0.6226746094423654  0.7067797364515481  0.4318959082144305
  0.3691044102143092  0.2020693102415552  0.1256301352304293
  0.1185245919808906  0.2017481475127728  0.1252454986063161
  0.9521257609441497  0.7853973573807035  0.2261664697734823
  0.7850723331246698  0.6191564695604146  0.3267716294883709
  0.2860182091239163  0.6185890670026800  0.3280561815008742
  0.7857046685501975  0.6184332482015853  0.0226031536659055
  0.2859564229752087  0.6184566442271299  0.0227711968609479
  0.3691826532622088  0.7017590439923832  0.1263765716558548
  0.3693044158685655  0.4523780939931741  0.1261187246355887
  0.2014301770560316  0.2849443072084226  0.2256738845932014
  0.7833849652672017  0.3699658575265834  0.3275032861949916
  0.7857148628675057  0.3685044930474762  0.0226872839034418
  0.9518011986407251  0.0354505654514480  0.2262843300159342
  0.4520092478502691  0.7854167927464972  0.2267970040238231
  0.7018490241917608  0.5355732615119789  0.2267730753190926
  0.2024869471568720  0.7851851340895759  0.2267001996692183
  0.4517596726625868  0.0358408763472993  0.2258776478416672
  0.1190586339561649  0.7019905263207683  0.1259587668228487
  0.7018526004989681  0.0357091237764397  0.2261736050630752
  0.7849423818180199  0.1192904368895431  0.3266118011497946
  0.5352305788130501  0.8690103110171007  0.3267769248041602
  0.7856827235632091  0.1185821987282243  0.0225401408430061
  0.5358720739947935  0.8683337962827471  0.0226019134392592
  0.2022517839759106  0.5352800181595326  0.2262330605093584
  0.9517388825196625  0.2853624716216409  0.2260561044726810
  0.8688297710289528  0.9519387527317071  0.1257862868137816
  0.7016332420407102  0.2860009310716726  0.2266946169859967
  0.4517208418313925  0.2857903723416801  0.2262438374092142
  0.4412112992619764  0.5263431100226413  0.4711773380075815
  0.5460125710904339  0.6326175779303393  0.4726954319539521
 
  0.00000000E+00  0.00000000E+00  0.00000000E+00
  0.00000000E+00  0.00000000E+00  0.00000000E+00
  0.00000000E+00  0.00000000E+00  0.00000000E+00
  0.00000000E+00  0.00000000E+00  0.00000000E+00
  0.00000000E+00  0.00000000E+00  0.00000000E+00
  0.00000000E+00  0.00000000E+00  0.00000000E+00
  0.00000000E+00  0.00000000E+00  0.00000000E+00
  0.00000000E+00  0.00000000E+00  0.00000000E+00
  0.00000000E+00  0.00000000E+00  0.00000000E+00
  0.00000000E+00  0.00000000E+00  0.00000000E+00
  0.00000000E+00  0.00000000E+00  0.00000000E+00
  0.00000000E+00  0.00000000E+00  0.00000000E+00
  0.00000000E+00  0.00000000E+00  0.00000000E+00
  0.00000000E+00  0.00000000E+00  0.00000000E+00
  0.00000000E+00  0.00000000E+00  0.00000000E+00
  0.00000000E+00  0.00000000E+00  0.00000000E+00
  0.00000000E+00  0.00000000E+00  0.00000000E+00
  0.00000000E+00  0.00000000E+00  0.00000000E+00
  0.00000000E+00  0.00000000E+00  0.00000000E+00
  0.00000000E+00  0.00000000E+00  0.00000000E+00
  0.00000000E+00  0.00000000E+00  0.00000000E+00
  0.00000000E+00  0.00000000E+00  0.00000000E+00
  0.00000000E+00  0.00000000E+00  0.00000000E+00
  0.00000000E+00  0.00000000E+00  0.00000000E+00
  0.00000000E+00  0.00000000E+00  0.00000000E+00
  0.00000000E+00  0.00000000E+00  0.00000000E+00
  0.00000000E+00  0.00000000E+00  0.00000000E+00
  0.00000000E+00  0.00000000E+00  0.00000000E+00
  0.00000000E+00  0.00000000E+00  0.00000000E+00
  0.00000000E+00  0.00000000E+00  0.00000000E+00
  0.00000000E+00  0.00000000E+00  0.00000000E+00
  0.00000000E+00  0.00000000E+00  0.00000000E+00
  0.00000000E+00  0.00000000E+00  0.00000000E+00
  0.00000000E+00  0.00000000E+00  0.00000000E+00
  0.00000000E+00  0.00000000E+00  0.00000000E+00
  0.00000000E+00  0.00000000E+00  0.00000000E+00
  0.00000000E+00  0.00000000E+00  0.00000000E+00
  0.00000000E+00  0.00000000E+00  0.00000000E+00
  0.00000000E+00  0.00000000E+00  0.00000000E+00
  0.00000000E+00  0.00000000E+00  0.00000000E+00
  0.00000000E+00  0.00000000E+00  0.00000000E+00
  0.00000000E+00  0.00000000E+00  0.00000000E+00
  0.00000000E+00  0.00000000E+00  0.00000000E+00
  0.00000000E+00  0.00000000E+00  0.00000000E+00
  0.00000000E+00  0.00000000E+00  0.00000000E+00
  0.00000000E+00  0.00000000E+00  0.00000000E+00
  0.00000000E+00  0.00000000E+00  0.00000000E+00
  0.00000000E+00  0.00000000E+00  0.00000000E+00
  0.00000000E+00  0.00000000E+00  0.00000000E+00
  0.00000000E+00  0.00000000E+00  0.00000000E+00
  0.00000000E+00  0.00000000E+00  0.00000000E+00
  0.00000000E+00  0.00000000E+00  0.00000000E+00
  0.00000000E+00  0.00000000E+00  0.00000000E+00
  0.00000000E+00  0.00000000E+00  0.00000000E+00
  0.00000000E+00  0.00000000E+00  0.00000000E+00
  0.00000000E+00  0.00000000E+00  0.00000000E+00
  0.00000000E+00  0.00000000E+00  0.00000000E+00
  0.00000000E+00  0.00000000E+00  0.00000000E+00
  0.00000000E+00  0.00000000E+00  0.00000000E+00
  0.00000000E+00  0.00000000E+00  0.00000000E+00
  0.00000000E+00  0.00000000E+00  0.00000000E+00
  0.00000000E+00  0.00000000E+00  0.00000000E+00
  0.00000000E+00  0.00000000E+00  0.00000000E+00
  0.00000000E+00  0.00000000E+00  0.00000000E+00
  0.00000000E+00  0.00000000E+00  0.00000000E+00
  0.00000000E+00  0.00000000E+00  0.00000000E+00
  0.00000000E+00  0.00000000E+00  0.00000000E+00
  0.00000000E+00  0.00000000E+00  0.00000000E+00
  0.00000000E+00  0.00000000E+00  0.00000000E+00
  0.00000000E+00  0.00000000E+00  0.00000000E+00
  0.00000000E+00  0.00000000E+00  0.00000000E+00
  0.00000000E+00  0.00000000E+00  0.00000000E+00
  0.00000000E+00  0.00000000E+00  0.00000000E+00
  0.00000000E+00  0.00000000E+00  0.00000000E+00
  0.00000000E+00  0.00000000E+00  0.00000000E+00
  0.00000000E+00  0.00000000E+00  0.00000000E+00
  0.00000000E+00  0.00000000E+00  0.00000000E+00
  0.00000000E+00  0.00000000E+00  0.00000000E+00
  0.00000000E+00  0.00000000E+00  0.00000000E+00
  0.00000000E+00  0.00000000E+00  0.00000000E+00
  0.00000000E+00  0.00000000E+00  0.00000000E+00
  0.00000000E+00  0.00000000E+00  0.00000000E+00
