Pt111                                   
   1.00000000000000     
    10.8599996560000012    0.0000000000000000    0.0000000000000000
     5.4299998282000006    9.4050210000029999    0.0000000000000000
     0.0000000000000000    0.0000000000000000   22.0000000000000000
   Pt   H 
    80     1
Selective dynamics
Direct
  0.7839997232897172  0.8702549168634877  0.3325267868533447   T   T   T
  0.0340684236261658  0.8702490790192591  0.3321971132866997   T   T   T
  0.0340306236724288  0.6201153315321403  0.3322232070208057   T   T   T
  0.7873349205994558  0.8674952269003313  0.0152308212318175   F   F   F
  0.0367320842392829  0.8681520879642264  0.0153527600727301   F   F   F
  0.0373989073856364  0.6176409446718054  0.0154994863090891   F   F   F
  0.6194189960789487  0.2016990408314214  0.1221737267772696   F   F   F
  0.3693809322184478  0.9517463079345774  0.1222103793636364   F   F   F
  0.0341147027336815  0.3700288084627353  0.3319919053377677   T   T   T
  0.0370201046572518  0.3674583872166650  0.0155577393772717   F   F   F
  0.8693491073940578  0.2018116199314619  0.1220913001454562   F   F   F
  0.9515901935856466  0.5360861729395001  0.2273111917477008   T   T   T
  0.2839702429558716  0.1201809051034379  0.3320030088024253   T   T   T
  0.5337327872277845  0.6198100339161510  0.3341009693714777   T   T   T
  0.2845304377113683  0.3706733922307289  0.3331736122295093   T   T   T
  0.2873765952147238  0.1175330330787858  0.0155092398909105   F   F   F
  0.5370283186585354  0.6177182214051555  0.0154576016727290   F   F   F
  0.2869306445795914  0.3679224259997795  0.0155646461636394   F   F   F
  0.6194349702689763  0.9517380813394425  0.1221158665999980   F   F   F
  0.7016929389216429  0.7859203692879401  0.2271576818433048   T   T   T
  0.8694070270772301  0.7018263132211899  0.1221937459090938   F   F   F
  0.6195360711749984  0.4517638478955703  0.1221993142909099   F   F   F
  0.2845367298359500  0.8691238740762673  0.3330938051598768   T   T   T
  0.2871738252107079  0.8674417730802944  0.0154894865772732   F   F   F
  0.6194883820982255  0.7018104038468280  0.1221261640000009   F   F   F
  0.2018478419722849  0.0356348310041168  0.2271087635833267   T   T   T
  0.8665042367061802  0.9543019903137224  0.4399275963067423   T   T   T
  0.1157186141442343  0.4545457589396021  0.4393939482757023   T   T   T
  0.1158215250396257  0.9548117041474088  0.4393580696746154   T   T   T
  0.8670646808396135  0.4545701422013522  0.4393336312153065   T   T   T
  0.3667058313542658  0.9547976058292852  0.4393824575767774   T   T   T
  0.8671873706883566  0.2034809237572499  0.4394232444599498   T   T   T
  0.1165010308574373  0.2043565448495799  0.4388684501356302   T   T   T
  0.6165966120765741  0.9542890249187870  0.4399181873395971   T   T   T
  0.8665416819579262  0.7043360087057289  0.4400040526831365   T   T   T
  0.3667214384462567  0.2034902186435353  0.4394713492740600   T   T   T
  0.3643376659822123  0.7085766172327981  0.4428674956888669   T   T   T
  0.6211326025393565  0.4519870393248965  0.4427274128499901   T   T   T
  0.1135321188784186  0.7058236158085007  0.4390418265670522   T   T   T
  0.6179814647032730  0.2013409817621374  0.4389830157555284   T   T   T
  0.5336778816974029  0.3708627744466078  0.3341373513868148   T   T   T
  0.5376474681861438  0.3673583408584520  0.0154035115590929   F   F   F
  0.5339278958134827  0.1202644649892690  0.3321869242577443   T   T   T
  0.5369274456555360  0.1179193705787185  0.0153290209681813   F   F   F
  0.8693781160558061  0.4518802796930146  0.1222732369272705   F   F   F
  0.1194584541925181  0.4517461022786264  0.1223683905500010   F   F   F
  0.0341591174169539  0.1202068423159278  0.3319586780961503   T   T   T
  0.0371957276002561  0.1175270138577744  0.0153231484045477   F   F   F
  0.1193796142450552  0.9517801007884117  0.1222630085136345   F   F   F
  0.3642163525147764  0.4520090024870928  0.4429449034182161   T   T   T
  0.4517040770903541  0.5359700282564087  0.2287480491924627   T   T   T
  0.6179545117427735  0.7058562020464205  0.4389906670773661   T   T   T
  0.3693120500594844  0.2018414474352994  0.1223099325681787   F   F   F
  0.1194348561054355  0.2016564451795873  0.1222742190636339   F   F   F
  0.9516979482319824  0.7859382568072684  0.2271752079698909   T   T   T
  0.7840655545985398  0.6200725823212410  0.3321733292352071   T   T   T
  0.2846885468559213  0.6198075072866093  0.3342327954747021   T   T   T
  0.7870878835189146  0.6179567151948007  0.0153573722500013   F   F   F
  0.2873208842736119  0.6175525319930841  0.0154873564681850   F   F   F
  0.3693384632384067  0.7017612812239236  0.1222807710363654   F   F   F
  0.3695367096322997  0.4518049357889424  0.1222576316000001   F   F   F
  0.2018206433020029  0.2860485761447775  0.2271888901422306   T   T   T
  0.7831335522319280  0.3705476162780452  0.3330216452133801   T   T   T
  0.7872776184030883  0.3679514371418122  0.0152802674000014   F   F   F
  0.9515392509261678  0.0359038113558498  0.2272320927269697   T   T   T
  0.4518104359495702  0.7854800155589415  0.2274791884168254   T   T   T
  0.7012292598208072  0.5360100649124131  0.2274756664623622   T   T   T
  0.2020668937119952  0.7854840295729667  0.2275921360880451   T   T   T
  0.4518289414093375  0.0358602475937458  0.2272835148695642   T   T   T
  0.1195018543957218  0.7018589200277034  0.1222523523545433   F   F   F
  0.7015690464942682  0.0360249061085079  0.2271426875904175   T   T   T
  0.7841086668543027  0.1202926380943732  0.3321445908466379   T   T   T
  0.5339390318172089  0.8702120138888862  0.3321825798683140   T   T   T
  0.7869536912459267  0.1177381509408235  0.0151841713954539   F   F   F
  0.5372347044807952  0.8678857375966942  0.0152472441227260   F   F   F
  0.2020934301231299  0.5360264778417676  0.2276212964071198   T   T   T
  0.9513949130450006  0.2860013320508922  0.2270925605690876   T   T   T
  0.8691736140476394  0.9518780234937410  0.1221645144818169   F   F   F
  0.7012277494933429  0.2863357382123856  0.2274192101105096   T   T   T
  0.4517151409683474  0.2863719872499375  0.2275397912216277   T   T   T
  0.4505166761984261  0.5372813777936870  0.4850705013587874   T   T   T
 
  0.00000000E+00  0.00000000E+00  0.00000000E+00
  0.00000000E+00  0.00000000E+00  0.00000000E+00
  0.00000000E+00  0.00000000E+00  0.00000000E+00
  0.00000000E+00  0.00000000E+00  0.00000000E+00
  0.00000000E+00  0.00000000E+00  0.00000000E+00
  0.00000000E+00  0.00000000E+00  0.00000000E+00
  0.00000000E+00  0.00000000E+00  0.00000000E+00
  0.00000000E+00  0.00000000E+00  0.00000000E+00
  0.00000000E+00  0.00000000E+00  0.00000000E+00
  0.00000000E+00  0.00000000E+00  0.00000000E+00
  0.00000000E+00  0.00000000E+00  0.00000000E+00
  0.00000000E+00  0.00000000E+00  0.00000000E+00
  0.00000000E+00  0.00000000E+00  0.00000000E+00
  0.00000000E+00  0.00000000E+00  0.00000000E+00
  0.00000000E+00  0.00000000E+00  0.00000000E+00
  0.00000000E+00  0.00000000E+00  0.00000000E+00
  0.00000000E+00  0.00000000E+00  0.00000000E+00
  0.00000000E+00  0.00000000E+00  0.00000000E+00
  0.00000000E+00  0.00000000E+00  0.00000000E+00
  0.00000000E+00  0.00000000E+00  0.00000000E+00
  0.00000000E+00  0.00000000E+00  0.00000000E+00
  0.00000000E+00  0.00000000E+00  0.00000000E+00
  0.00000000E+00  0.00000000E+00  0.00000000E+00
  0.00000000E+00  0.00000000E+00  0.00000000E+00
  0.00000000E+00  0.00000000E+00  0.00000000E+00
  0.00000000E+00  0.00000000E+00  0.00000000E+00
  0.00000000E+00  0.00000000E+00  0.00000000E+00
  0.00000000E+00  0.00000000E+00  0.00000000E+00
  0.00000000E+00  0.00000000E+00  0.00000000E+00
  0.00000000E+00  0.00000000E+00  0.00000000E+00
  0.00000000E+00  0.00000000E+00  0.00000000E+00
  0.00000000E+00  0.00000000E+00  0.00000000E+00
  0.00000000E+00  0.00000000E+00  0.00000000E+00
  0.00000000E+00  0.00000000E+00  0.00000000E+00
  0.00000000E+00  0.00000000E+00  0.00000000E+00
  0.00000000E+00  0.00000000E+00  0.00000000E+00
  0.00000000E+00  0.00000000E+00  0.00000000E+00
  0.00000000E+00  0.00000000E+00  0.00000000E+00
  0.00000000E+00  0.00000000E+00  0.00000000E+00
  0.00000000E+00  0.00000000E+00  0.00000000E+00
  0.00000000E+00  0.00000000E+00  0.00000000E+00
  0.00000000E+00  0.00000000E+00  0.00000000E+00
  0.00000000E+00  0.00000000E+00  0.00000000E+00
  0.00000000E+00  0.00000000E+00  0.00000000E+00
  0.00000000E+00  0.00000000E+00  0.00000000E+00
  0.00000000E+00  0.00000000E+00  0.00000000E+00
  0.00000000E+00  0.00000000E+00  0.00000000E+00
  0.00000000E+00  0.00000000E+00  0.00000000E+00
  0.00000000E+00  0.00000000E+00  0.00000000E+00
  0.00000000E+00  0.00000000E+00  0.00000000E+00
  0.00000000E+00  0.00000000E+00  0.00000000E+00
  0.00000000E+00  0.00000000E+00  0.00000000E+00
  0.00000000E+00  0.00000000E+00  0.00000000E+00
  0.00000000E+00  0.00000000E+00  0.00000000E+00
  0.00000000E+00  0.00000000E+00  0.00000000E+00
  0.00000000E+00  0.00000000E+00  0.00000000E+00
  0.00000000E+00  0.00000000E+00  0.00000000E+00
  0.00000000E+00  0.00000000E+00  0.00000000E+00
  0.00000000E+00  0.00000000E+00  0.00000000E+00
  0.00000000E+00  0.00000000E+00  0.00000000E+00
  0.00000000E+00  0.00000000E+00  0.00000000E+00
  0.00000000E+00  0.00000000E+00  0.00000000E+00
  0.00000000E+00  0.00000000E+00  0.00000000E+00
  0.00000000E+00  0.00000000E+00  0.00000000E+00
  0.00000000E+00  0.00000000E+00  0.00000000E+00
  0.00000000E+00  0.00000000E+00  0.00000000E+00
  0.00000000E+00  0.00000000E+00  0.00000000E+00
  0.00000000E+00  0.00000000E+00  0.00000000E+00
  0.00000000E+00  0.00000000E+00  0.00000000E+00
  0.00000000E+00  0.00000000E+00  0.00000000E+00
  0.00000000E+00  0.00000000E+00  0.00000000E+00
  0.00000000E+00  0.00000000E+00  0.00000000E+00
  0.00000000E+00  0.00000000E+00  0.00000000E+00
  0.00000000E+00  0.00000000E+00  0.00000000E+00
  0.00000000E+00  0.00000000E+00  0.00000000E+00
  0.00000000E+00  0.00000000E+00  0.00000000E+00
  0.00000000E+00  0.00000000E+00  0.00000000E+00
  0.00000000E+00  0.00000000E+00  0.00000000E+00
  0.00000000E+00  0.00000000E+00  0.00000000E+00
  0.00000000E+00  0.00000000E+00  0.00000000E+00
  0.00000000E+00  0.00000000E+00  0.00000000E+00
