Pt111                                   
   1.00000000000000     
    10.4600000059999996    0.0000000000000000    0.0000000000000000
     5.2300000300000002    9.0586257560000298    0.0000000000000000
     0.0000000000000000    0.0000000000000000   22.0000000000000000
   Pt
    80
Direct
  0.7838304191122774  0.8698241262970399  0.3369671862256709
  0.0338172940706372  0.8699107172684961  0.3373327701968734
  0.0339131146089500  0.6198648100249713  0.3375734225222544
  0.7879355972376203  0.8671318684531499  0.0033812511202740
  0.0379693389473701  0.8672008657237456  0.0036877845102055
  0.0378733892710983  0.6172328953293444  0.0038820877007382
  0.6200100786779004  0.2012909065393558  0.1157149691530250
  0.3700217266307462  0.9513395321729163  0.1160021976561225
  0.0340338209401594  0.3698316650320166  0.3376804219363123
  0.0379267953965439  0.3672423065515389  0.0039367652814732
  0.8701728802480631  0.2012549686794287  0.1157534273761058
  0.9514229011295043  0.5360598151963671  0.2268521148419538
  0.2840566942459972  0.1197204451122147  0.3376353486873214
  0.5340023660548070  0.6196683372989540  0.3372929791664276
  0.2841674592573540  0.3697465809497942  0.3378441606150417
  0.2880078733376550  0.1172288516595827  0.0039675260303298
  0.5378594275220792  0.6171585192748807  0.0036422661229452
  0.2879258546953025  0.3672346782739098  0.0041125104411464
  0.6200054475005246  0.9512637043641874  0.1157245026271596
  0.7013844236318008  0.7859663124876874  0.2262709613622960
  0.8699896879129767  0.7012174997662299  0.1159109676743597
  0.6198774351816638  0.4512773230480249  0.1159166438755435
  0.2838341551666730  0.8698453884153849  0.3373637862341567
  0.2879122997660346  0.8672950601035225  0.0036335257316225
  0.6198911678331669  0.7012154122949426  0.1158418983787968
  0.2016188478646868  0.0360603268142157  0.2267531139385568
  0.8667158216698283  0.9532840424749907  0.4494166803318791
  0.1168612084382374  0.4533841699904357  0.4500350220036751
  0.1167057210003080  0.9534202251021142  0.4496817585296213
  0.8668489482461439  0.4532648132230008  0.4497279525337063
  0.3667431252089628  0.9533407298678824  0.4495990142305004
  0.8668438462533459  0.2032713533682085  0.4493405409042381
  0.1167801177101069  0.2034166037420846  0.4498433570816331
  0.6166861216494155  0.9532397105147083  0.4493734900536097
  0.8667852821506017  0.7032750891145980  0.4495562944788887
  0.3667984812512231  0.2034058913670975  0.4499669076491983
  0.3667603086870557  0.7033604593181693  0.4497116608264164
  0.6168462882705583  0.4532673504869891  0.4496038325532865
  0.1167355361918112  0.7033973592156073  0.4497851670674322
  0.6168242944664968  0.2032801976165146  0.4494276321549719
  0.5341962844159838  0.3696822903079493  0.3373031467979715
  0.5379531401488578  0.3671220144192944  0.0036299046146482
  0.5341408195303146  0.1196612655700733  0.3372914667508908
  0.5380699199976107  0.1170847242926953  0.0035827870805463
  0.8700184529238442  0.4512336079102255  0.1160682032331977
  0.1199665078012657  0.4512706179126411  0.1164656127684864
  0.0340630890580016  0.1197758728132499  0.3372598727878113
  0.0379430841333601  0.1172603538965618  0.0036839254851344
  0.1200719136600767  0.9513095173522572  0.1159922295461939
  0.3668297649947974  0.4533670287971034  0.4498524655680356
  0.4513863426558089  0.5360763185062112  0.2268039325178108
  0.6167145883387875  0.7032753334696480  0.4493560338890461
  0.3700337468108046  0.2013745680979540  0.1163391041132229
  0.1200757074880059  0.2014112151361545  0.1163357868575972
  0.9513714842873426  0.7860846189119073  0.2266778393623881
  0.7839820238996680  0.6197277411449846  0.3372433047698706
  0.2839517559265303  0.6198059486870449  0.3376439453822329
  0.7878151187408804  0.6171548695717135  0.0036517163821088
  0.2878269431768032  0.6172479655448626  0.0040690914334647
  0.3698486972907773  0.7012916396816280  0.1160944189966244
  0.3699675103563820  0.4512792590320487  0.1163719561124452
  0.2016613110508061  0.2860145112373829  0.2272802118488642
  0.7840967407441042  0.3697622989727165  0.3371962822008214
  0.7878565987069450  0.3671083510322504  0.0035979296605291
  0.9515138433540997  0.0361009978553000  0.2263665247154094
  0.4514083762818046  0.7860266077702036  0.2264840488134396
  0.7013787436055949  0.5361213667500309  0.2265915365653512
  0.2013720341644145  0.7860208562242192  0.2268882833336150
  0.4515421767307615  0.0360179842199955  0.2266962035539919
  0.1199044836686198  0.7013468144987272  0.1163247895047590
  0.7015240822585014  0.0360819922193301  0.2261537717255209
  0.7840034972113159  0.1197101812671875  0.3368902301835632
  0.5339338755644221  0.8697025131115694  0.3369972383917741
  0.7880085313474083  0.1171246594681392  0.0033814412485498
  0.5379365303439982  0.8671487715467094  0.0035919142334109
  0.2014807246523773  0.5360626780747850  0.2271571665754593
  0.9516138458462251  0.2861200588198187  0.2267502963210433
  0.8701004949520410  0.9512048588668378  0.1156720897680898
  0.7015668371478441  0.2860554302715599  0.2262788217897409
  0.4516634892971396  0.2860034632026824  0.2268906213105453
 
  0.00000000E+00  0.00000000E+00  0.00000000E+00
  0.00000000E+00  0.00000000E+00  0.00000000E+00
  0.00000000E+00  0.00000000E+00  0.00000000E+00
  0.00000000E+00  0.00000000E+00  0.00000000E+00
  0.00000000E+00  0.00000000E+00  0.00000000E+00
  0.00000000E+00  0.00000000E+00  0.00000000E+00
  0.00000000E+00  0.00000000E+00  0.00000000E+00
  0.00000000E+00  0.00000000E+00  0.00000000E+00
  0.00000000E+00  0.00000000E+00  0.00000000E+00
  0.00000000E+00  0.00000000E+00  0.00000000E+00
  0.00000000E+00  0.00000000E+00  0.00000000E+00
  0.00000000E+00  0.00000000E+00  0.00000000E+00
  0.00000000E+00  0.00000000E+00  0.00000000E+00
  0.00000000E+00  0.00000000E+00  0.00000000E+00
  0.00000000E+00  0.00000000E+00  0.00000000E+00
  0.00000000E+00  0.00000000E+00  0.00000000E+00
  0.00000000E+00  0.00000000E+00  0.00000000E+00
  0.00000000E+00  0.00000000E+00  0.00000000E+00
  0.00000000E+00  0.00000000E+00  0.00000000E+00
  0.00000000E+00  0.00000000E+00  0.00000000E+00
  0.00000000E+00  0.00000000E+00  0.00000000E+00
  0.00000000E+00  0.00000000E+00  0.00000000E+00
  0.00000000E+00  0.00000000E+00  0.00000000E+00
  0.00000000E+00  0.00000000E+00  0.00000000E+00
  0.00000000E+00  0.00000000E+00  0.00000000E+00
  0.00000000E+00  0.00000000E+00  0.00000000E+00
  0.00000000E+00  0.00000000E+00  0.00000000E+00
  0.00000000E+00  0.00000000E+00  0.00000000E+00
  0.00000000E+00  0.00000000E+00  0.00000000E+00
  0.00000000E+00  0.00000000E+00  0.00000000E+00
  0.00000000E+00  0.00000000E+00  0.00000000E+00
  0.00000000E+00  0.00000000E+00  0.00000000E+00
  0.00000000E+00  0.00000000E+00  0.00000000E+00
  0.00000000E+00  0.00000000E+00  0.00000000E+00
  0.00000000E+00  0.00000000E+00  0.00000000E+00
  0.00000000E+00  0.00000000E+00  0.00000000E+00
  0.00000000E+00  0.00000000E+00  0.00000000E+00
  0.00000000E+00  0.00000000E+00  0.00000000E+00
  0.00000000E+00  0.00000000E+00  0.00000000E+00
  0.00000000E+00  0.00000000E+00  0.00000000E+00
  0.00000000E+00  0.00000000E+00  0.00000000E+00
  0.00000000E+00  0.00000000E+00  0.00000000E+00
  0.00000000E+00  0.00000000E+00  0.00000000E+00
  0.00000000E+00  0.00000000E+00  0.00000000E+00
  0.00000000E+00  0.00000000E+00  0.00000000E+00
  0.00000000E+00  0.00000000E+00  0.00000000E+00
  0.00000000E+00  0.00000000E+00  0.00000000E+00
  0.00000000E+00  0.00000000E+00  0.00000000E+00
  0.00000000E+00  0.00000000E+00  0.00000000E+00
  0.00000000E+00  0.00000000E+00  0.00000000E+00
  0.00000000E+00  0.00000000E+00  0.00000000E+00
  0.00000000E+00  0.00000000E+00  0.00000000E+00
  0.00000000E+00  0.00000000E+00  0.00000000E+00
  0.00000000E+00  0.00000000E+00  0.00000000E+00
  0.00000000E+00  0.00000000E+00  0.00000000E+00
  0.00000000E+00  0.00000000E+00  0.00000000E+00
  0.00000000E+00  0.00000000E+00  0.00000000E+00
  0.00000000E+00  0.00000000E+00  0.00000000E+00
  0.00000000E+00  0.00000000E+00  0.00000000E+00
  0.00000000E+00  0.00000000E+00  0.00000000E+00
  0.00000000E+00  0.00000000E+00  0.00000000E+00
  0.00000000E+00  0.00000000E+00  0.00000000E+00
  0.00000000E+00  0.00000000E+00  0.00000000E+00
  0.00000000E+00  0.00000000E+00  0.00000000E+00
  0.00000000E+00  0.00000000E+00  0.00000000E+00
  0.00000000E+00  0.00000000E+00  0.00000000E+00
  0.00000000E+00  0.00000000E+00  0.00000000E+00
  0.00000000E+00  0.00000000E+00  0.00000000E+00
  0.00000000E+00  0.00000000E+00  0.00000000E+00
  0.00000000E+00  0.00000000E+00  0.00000000E+00
  0.00000000E+00  0.00000000E+00  0.00000000E+00
  0.00000000E+00  0.00000000E+00  0.00000000E+00
  0.00000000E+00  0.00000000E+00  0.00000000E+00
  0.00000000E+00  0.00000000E+00  0.00000000E+00
  0.00000000E+00  0.00000000E+00  0.00000000E+00
  0.00000000E+00  0.00000000E+00  0.00000000E+00
  0.00000000E+00  0.00000000E+00  0.00000000E+00
  0.00000000E+00  0.00000000E+00  0.00000000E+00
  0.00000000E+00  0.00000000E+00  0.00000000E+00
  0.00000000E+00  0.00000000E+00  0.00000000E+00
