PtM\(2)                                 
   1.00000000000000     
    10.5600004195999997    0.0000000000000000    0.0000000000000000
     5.2800002097999998    9.1452286273999999    0.0000000000000000
     0.0000000000000000    0.0000000000000000   22.0000000000000000
   Co   Pt
    64    16
Direct
  0.7848086700312995  0.8692222589580827  0.3112974694410877
  0.0348014380858266  0.8692117714217897  0.3112891312081155
  0.0347277079482062  0.6192321540553758  0.3112873236517148
  0.7867273660721724  0.8679642656903866  0.0512459387659361
  0.0365582889313374  0.8681155879340049  0.0512968500731519
  0.0366385040661584  0.6180027208124711  0.0513268320054048
  0.6197458139930344  0.2015653887097582  0.1359842224369634
  0.3696581151011725  0.9516587404404168  0.1359628183686445
  0.0346269517798871  0.3692524801229550  0.3112877404209735
  0.0365963083322400  0.3681210411034738  0.0513400607571060
  0.8696445805576445  0.2016593805309817  0.1359685681153704
  0.9517713067545918  0.5356937729189903  0.2260127634406701
  0.2846959677326294  0.1192551940219133  0.3113031719034838
  0.5346269529027433  0.6193520587528701  0.3113234910337440
  0.2845719384928080  0.3692754525389551  0.3113105042563804
  0.2866892341032515  0.1181642286694520  0.0512986875098354
  0.5364312247576536  0.6180888009889449  0.0512321504239305
  0.2865494571221083  0.3680887902838128  0.0513541229419803
  0.6196855222963616  0.9516086189220878  0.1359457447223889
  0.7017480668807122  0.7856585387572188  0.2259650735458746
  0.8696068445819366  0.7016434521170402  0.1359744543415079
  0.6196787033389157  0.4516972511534759  0.1359518773059233
  0.2848410940526226  0.8692630694464969  0.3113109847844067
  0.2864484617092903  0.8681479668050266  0.0512844256876791
  0.6195877735758499  0.7016649391703622  0.1359121752649989
  0.2018342636797161  0.0356647943273643  0.2260143373190430
  0.5345510180811761  0.3693568068121038  0.3113075637910613
  0.5366727813387382  0.3679689281035390  0.0512926962322054
  0.5346252370424907  0.1193556181939086  0.3113071635966589
  0.5366727297465176  0.1180819610835833  0.0512831161369111
  0.8695347579031933  0.4517599086959508  0.1360032284068451
  0.1196881004403342  0.4516315490739530  0.1360589541575638
  0.0346774857013602  0.1192728754416368  0.3112887730402321
  0.0367073024006172  0.1181355239482364  0.0512976033601623
  0.1195841194045253  0.9517098196386832  0.1359996366504348
  0.4518123198875545  0.5357561801870885  0.2260097896796012
  0.3697648022629599  0.2016092602734989  0.1360238306964505
  0.1197124802111180  0.2016080101696269  0.1360219540860607
  0.9518695993507089  0.7856206452412861  0.2259924594749969
  0.7847047583019284  0.6193215467629698  0.3113037752738188
  0.2846962664209653  0.6192257993013807  0.3112985544077931
  0.7866122012301834  0.6180570610569580  0.0512491053402193
  0.2865146433607801  0.6180287077970249  0.0513054318778888
  0.3695989973358716  0.7017014523161837  0.1359655195242558
  0.3697484436182929  0.4516451135861608  0.1360192398913929
  0.2018240385056697  0.2856559376344797  0.2260319924241580
  0.7845457020272932  0.3693126786748732  0.3112847613862683
  0.7867185081037574  0.3680613783408409  0.0512697199623381
  0.9517836259119086  0.0356531713142751  0.2259653045215351
  0.4518509430105022  0.7856865262651052  0.2259811728488397
  0.7017113454372867  0.5357880651224818  0.2260010134190879
  0.2019226333094159  0.7856443424491139  0.2260194246013775
  0.4517697492300521  0.0356982994367525  0.2259909210760910
  0.1196483908930335  0.7016781133109298  0.1360106184263677
  0.7017446550828762  0.0356659425511961  0.2259704187769531
  0.7846426311083672  0.1193372670664516  0.3112772510906952
  0.5347612594425970  0.8692840589025874  0.3113384643467236
  0.7867138903048404  0.1180528005349420  0.0512607778177299
  0.5365868230829746  0.8681333544785031  0.0512481075064436
  0.2018711322514498  0.5356869958844870  0.2260226243830525
  0.9517457944883700  0.2857124213217659  0.2259962668536364
  0.8695596740848278  0.9516473608770782  0.1359644263585149
  0.7016920802245703  0.2857581566716552  0.2259621583319928
  0.4517402237733941  0.2857376962246760  0.2260220874217028
  0.8674714275013704  0.9529010231846414  0.4087781309550566
  0.1175087567461392  0.4529454733665207  0.4089087961103244
  0.1173240594027612  0.9529442645005369  0.4088388206431032
  0.8674142549696046  0.4528669975485155  0.4088451592329943
  0.3674829280536037  0.9529142619096782  0.4088652896881285
  0.8674347859313455  0.2029280564173045  0.4087997682789044
  0.1174415648114299  0.2028723855449825  0.4088720564425547
  0.6175085576506786  0.9528551851783954  0.4088101420343666
  0.8673188626274250  0.7030373271265882  0.4088399655119810
  0.3675555282686881  0.2028320049165988  0.4088776740365924
  0.3675546779037271  0.7029647616441946  0.4088745168910535
  0.6174900346849768  0.4528598059971821  0.4088491414980784
  0.1173716233731085  0.7029846100152327  0.4088747195115237
  0.6174934809126033  0.2029104005339043  0.4088192233190633
  0.3675144568569898  0.4528838654976330  0.4088927012608656
  0.6174339851128708  0.7029541882184330  0.4088469646810374
 
  0.00000000E+00  0.00000000E+00  0.00000000E+00
  0.00000000E+00  0.00000000E+00  0.00000000E+00
  0.00000000E+00  0.00000000E+00  0.00000000E+00
  0.00000000E+00  0.00000000E+00  0.00000000E+00
  0.00000000E+00  0.00000000E+00  0.00000000E+00
  0.00000000E+00  0.00000000E+00  0.00000000E+00
  0.00000000E+00  0.00000000E+00  0.00000000E+00
  0.00000000E+00  0.00000000E+00  0.00000000E+00
  0.00000000E+00  0.00000000E+00  0.00000000E+00
  0.00000000E+00  0.00000000E+00  0.00000000E+00
  0.00000000E+00  0.00000000E+00  0.00000000E+00
  0.00000000E+00  0.00000000E+00  0.00000000E+00
  0.00000000E+00  0.00000000E+00  0.00000000E+00
  0.00000000E+00  0.00000000E+00  0.00000000E+00
  0.00000000E+00  0.00000000E+00  0.00000000E+00
  0.00000000E+00  0.00000000E+00  0.00000000E+00
  0.00000000E+00  0.00000000E+00  0.00000000E+00
  0.00000000E+00  0.00000000E+00  0.00000000E+00
  0.00000000E+00  0.00000000E+00  0.00000000E+00
  0.00000000E+00  0.00000000E+00  0.00000000E+00
  0.00000000E+00  0.00000000E+00  0.00000000E+00
  0.00000000E+00  0.00000000E+00  0.00000000E+00
  0.00000000E+00  0.00000000E+00  0.00000000E+00
  0.00000000E+00  0.00000000E+00  0.00000000E+00
  0.00000000E+00  0.00000000E+00  0.00000000E+00
  0.00000000E+00  0.00000000E+00  0.00000000E+00
  0.00000000E+00  0.00000000E+00  0.00000000E+00
  0.00000000E+00  0.00000000E+00  0.00000000E+00
  0.00000000E+00  0.00000000E+00  0.00000000E+00
  0.00000000E+00  0.00000000E+00  0.00000000E+00
  0.00000000E+00  0.00000000E+00  0.00000000E+00
  0.00000000E+00  0.00000000E+00  0.00000000E+00
  0.00000000E+00  0.00000000E+00  0.00000000E+00
  0.00000000E+00  0.00000000E+00  0.00000000E+00
  0.00000000E+00  0.00000000E+00  0.00000000E+00
  0.00000000E+00  0.00000000E+00  0.00000000E+00
  0.00000000E+00  0.00000000E+00  0.00000000E+00
  0.00000000E+00  0.00000000E+00  0.00000000E+00
  0.00000000E+00  0.00000000E+00  0.00000000E+00
  0.00000000E+00  0.00000000E+00  0.00000000E+00
  0.00000000E+00  0.00000000E+00  0.00000000E+00
  0.00000000E+00  0.00000000E+00  0.00000000E+00
  0.00000000E+00  0.00000000E+00  0.00000000E+00
  0.00000000E+00  0.00000000E+00  0.00000000E+00
  0.00000000E+00  0.00000000E+00  0.00000000E+00
  0.00000000E+00  0.00000000E+00  0.00000000E+00
  0.00000000E+00  0.00000000E+00  0.00000000E+00
  0.00000000E+00  0.00000000E+00  0.00000000E+00
  0.00000000E+00  0.00000000E+00  0.00000000E+00
  0.00000000E+00  0.00000000E+00  0.00000000E+00
  0.00000000E+00  0.00000000E+00  0.00000000E+00
  0.00000000E+00  0.00000000E+00  0.00000000E+00
  0.00000000E+00  0.00000000E+00  0.00000000E+00
  0.00000000E+00  0.00000000E+00  0.00000000E+00
  0.00000000E+00  0.00000000E+00  0.00000000E+00
  0.00000000E+00  0.00000000E+00  0.00000000E+00
  0.00000000E+00  0.00000000E+00  0.00000000E+00
  0.00000000E+00  0.00000000E+00  0.00000000E+00
  0.00000000E+00  0.00000000E+00  0.00000000E+00
  0.00000000E+00  0.00000000E+00  0.00000000E+00
  0.00000000E+00  0.00000000E+00  0.00000000E+00
  0.00000000E+00  0.00000000E+00  0.00000000E+00
  0.00000000E+00  0.00000000E+00  0.00000000E+00
  0.00000000E+00  0.00000000E+00  0.00000000E+00
  0.00000000E+00  0.00000000E+00  0.00000000E+00
  0.00000000E+00  0.00000000E+00  0.00000000E+00
  0.00000000E+00  0.00000000E+00  0.00000000E+00
  0.00000000E+00  0.00000000E+00  0.00000000E+00
  0.00000000E+00  0.00000000E+00  0.00000000E+00
  0.00000000E+00  0.00000000E+00  0.00000000E+00
  0.00000000E+00  0.00000000E+00  0.00000000E+00
  0.00000000E+00  0.00000000E+00  0.00000000E+00
  0.00000000E+00  0.00000000E+00  0.00000000E+00
  0.00000000E+00  0.00000000E+00  0.00000000E+00
  0.00000000E+00  0.00000000E+00  0.00000000E+00
  0.00000000E+00  0.00000000E+00  0.00000000E+00
  0.00000000E+00  0.00000000E+00  0.00000000E+00
  0.00000000E+00  0.00000000E+00  0.00000000E+00
  0.00000000E+00  0.00000000E+00  0.00000000E+00
  0.00000000E+00  0.00000000E+00  0.00000000E+00
