Pt111                                   
   1.00000000000000     
    10.5600000059999992    0.0000000000000000    0.0000000000000000
     5.2800002098030001    9.1452286273900008    0.0000000000000000
     0.0000000000000000    0.0000000000000000   22.0000000000000000
   Pt
    80
Selective dynamics
Direct
  0.7804352082641561  0.8733009531486170  0.3361992658558590   T   T   T
  0.0301626098860158  0.8737887573876191  0.3350443625062545   T   T   T
  0.0302271584210343  0.6230154952739725  0.3356155360169417   T   T   T
  0.7875278653567364  0.8676044321556162  0.0065254399863619   F   F   F
  0.0375533410712592  0.8673873191253278  0.0067267300590927   F   F   F
  0.0376057549980970  0.6174349873209763  0.0069589563136390   F   F   F
  0.6195284083391206  0.2023681402173407  0.1183495932276737   T   T   T
  0.3706055057875619  0.9499606353478740  0.1166057322402712   T   T   T
  0.0305833570193457  0.3730454105135544  0.3339754413196469   T   T   T
  0.0376593768914049  0.3673714897774900  0.0069377762863638   F   F   F
  0.8689127487819651  0.2020906395000843  0.1162963338907701   T   T   T
  0.9506877307326840  0.5363978343138649  0.2248693639612945   T   T   T
  0.2803957748639960  0.1232996994470821  0.3334351931139771   T   T   T
  0.5307926021462264  0.6232244108170931  0.3422461993651973   T   T   T
  0.2805661886242290  0.3737056506579006  0.3375605867094563   T   T   T
  0.2875793840366683  0.1172925608975319  0.0069349893545478   F   F   F
  0.5377814444854110  0.6173821769846057  0.0066582506045449   F   F   F
  0.2876739959956183  0.3673217993740536  0.0071165380181810   F   F   F
  0.6202365862659838  0.9512609589000722  0.1173234699325892   T   T   T
  0.7005119561823906  0.7871356803445565  0.2269258911478522   T   T   T
  0.8702279869333455  0.7012342259666922  0.1178237873145671   T   T   T
  0.6185513812185945  0.4520332001889859  0.1205949546147080   T   T   T
  0.2805592462711728  0.8727966112927648  0.3368173213342167   T   T   T
  0.2875920397542089  0.8673775481612935  0.0066964500636360   F   F   F
  0.6195729856000101  0.7008136542875890  0.1182996341259203   T   T   T
  0.2008009973588502  0.0365063545106634  0.2247389201348141   T   T   T
  0.8618617586015320  0.9586024016446412  0.4464754196784007   T   T   T
  0.1116382916865756  0.4584921026120881  0.4472454050807559   T   T   T
  0.1116817764670845  0.9585796959676715  0.4464694143339805   T   T   T
  0.8617948619423110  0.4584981757566508  0.4459247919516378   T   T   T
  0.3617936546773263  0.9585713402005127  0.4457140645317837   T   T   T
  0.8618442411585939  0.2084892325817177  0.4452064804034146   T   T   T
  0.1117365387599938  0.2084963146335681  0.4448422493206921   T   T   T
  0.6115781689740207  0.9586437549059985  0.4466323659374489   T   T   T
  0.8618110970420694  0.7084272680111590  0.4464585759683263   T   T   T
  0.3617390219671244  0.2084720765514593  0.4457074261743592   T   T   T
  0.3617072573779421  0.7087700891941016  0.4531871126451472   T   T   T
  0.6124725539361942  0.4581330392152874  0.4547349788177895   T   T   T
  0.1123222017139902  0.7081725084739687  0.4474345676821617   T   T   T
  0.6116536725212379  0.2089751730111304  0.4477787071707014   T   T   T
  0.5306742131088580  0.3731161142387476  0.3429341799537289   T   T   T
  0.5376393909505879  0.3674587181708375  0.0067153063636383   F   F   F
  0.5304009126495337  0.1231095602982177  0.3349527158658838   T   T   T
  0.5375965631724284  0.1174310412189783  0.0065958484954578   F   F   F
  0.8690019787733745  0.4518066116910389  0.1165480959905503   T   T   T
  0.1210646312769838  0.4517556227287085  0.1173067729035986   T   T   T
  0.0305400649796306  0.1233509012483122  0.3333863268255323   T   T   T
  0.0374956182886308  0.1173493035467459  0.0067709917772731   F   F   F
  0.1210321237023560  0.9499706629299769  0.1166810807657787   T   T   T
  0.3616445171945556  0.4581492819577746  0.4547187761310194   T   T   T
  0.4502529203889648  0.5372495573073193  0.2370108968120584   T   T   T
  0.6116260174218912  0.7081362296522015  0.4472909221491732   T   T   T
  0.3706856508931133  0.2021879857508189  0.1168194945877571   T   T   T
  0.1202942425010287  0.2013349885836820  0.1161777667844979   T   T   T
  0.9502504765975672  0.7871516980429284  0.2270638794622646   T   T   T
  0.7806589904979113  0.6230926542442903  0.3350203462787806   T   T   T
  0.2801651675518002  0.6233916413349894  0.3425492741150186   T   T   T
  0.7877450438485667  0.6174286127072435  0.0066710570909123   F   F   F
  0.2876360288916615  0.6174004917700344  0.0070093983590880   F   F   F
  0.3706228666018677  0.7000611136459078  0.1214325873543819   T   T   T
  0.3706298035114315  0.4520114714837113  0.1218215318100054   T   T   T
  0.2009631530306632  0.2873115322449099  0.2251835729331566   T   T   T
  0.7799262807023560  0.3735500440147065  0.3359562160830296   T   T   T
  0.7876968600880829  0.3673289306774521  0.0066823488499992   F   F   F
  0.9505758291077915  0.0375041532732824  0.2240224210700485   T   T   T
  0.4506022811996940  0.7864383574646585  0.2286939234389300   T   T   T
  0.6995171124402479  0.5375077648004466  0.2279438769107990   T   T   T
  0.2006697973477005  0.7865270836818602  0.2288285073409699   T   T   T
  0.4501685747043458  0.0372949843518671  0.2238814097162011   T   T   T
  0.1211336113117460  0.7007495564412236  0.1187853048311634   T   T   T
  0.7005274359184657  0.0369564190468956  0.2267533365333541   T   T   T
  0.7805920467369826  0.1232453063103421  0.3346872284311772   T   T   T
  0.5303276551580836  0.8736304999512773  0.3347326461451823   T   T   T
  0.7875789281410306  0.1174827426054890  0.0064821487818207   F   F   F
  0.5376000262375982  0.8674459689985952  0.0066132856227270   F   F   F
  0.2006292276635146  0.5374716707139817  0.2294194449872956   T   T   T
  0.9498346485106888  0.2874154488461951  0.2242524458302199   T   T   T
  0.8702388362366850  0.9511821791690427  0.1173714420285381   T   T   T
  0.6993810481149670  0.2877189593538443  0.2280433084993129   T   T   T
  0.4506006258039358  0.2876810167569610  0.2292789249196816   T   T   T
 
  0.00000000E+00  0.00000000E+00  0.00000000E+00
  0.00000000E+00  0.00000000E+00  0.00000000E+00
  0.00000000E+00  0.00000000E+00  0.00000000E+00
  0.00000000E+00  0.00000000E+00  0.00000000E+00
  0.00000000E+00  0.00000000E+00  0.00000000E+00
  0.00000000E+00  0.00000000E+00  0.00000000E+00
  0.00000000E+00  0.00000000E+00  0.00000000E+00
  0.00000000E+00  0.00000000E+00  0.00000000E+00
  0.00000000E+00  0.00000000E+00  0.00000000E+00
  0.00000000E+00  0.00000000E+00  0.00000000E+00
  0.00000000E+00  0.00000000E+00  0.00000000E+00
  0.00000000E+00  0.00000000E+00  0.00000000E+00
  0.00000000E+00  0.00000000E+00  0.00000000E+00
  0.00000000E+00  0.00000000E+00  0.00000000E+00
  0.00000000E+00  0.00000000E+00  0.00000000E+00
  0.00000000E+00  0.00000000E+00  0.00000000E+00
  0.00000000E+00  0.00000000E+00  0.00000000E+00
  0.00000000E+00  0.00000000E+00  0.00000000E+00
  0.00000000E+00  0.00000000E+00  0.00000000E+00
  0.00000000E+00  0.00000000E+00  0.00000000E+00
  0.00000000E+00  0.00000000E+00  0.00000000E+00
  0.00000000E+00  0.00000000E+00  0.00000000E+00
  0.00000000E+00  0.00000000E+00  0.00000000E+00
  0.00000000E+00  0.00000000E+00  0.00000000E+00
  0.00000000E+00  0.00000000E+00  0.00000000E+00
  0.00000000E+00  0.00000000E+00  0.00000000E+00
  0.00000000E+00  0.00000000E+00  0.00000000E+00
  0.00000000E+00  0.00000000E+00  0.00000000E+00
  0.00000000E+00  0.00000000E+00  0.00000000E+00
  0.00000000E+00  0.00000000E+00  0.00000000E+00
  0.00000000E+00  0.00000000E+00  0.00000000E+00
  0.00000000E+00  0.00000000E+00  0.00000000E+00
  0.00000000E+00  0.00000000E+00  0.00000000E+00
  0.00000000E+00  0.00000000E+00  0.00000000E+00
  0.00000000E+00  0.00000000E+00  0.00000000E+00
  0.00000000E+00  0.00000000E+00  0.00000000E+00
  0.00000000E+00  0.00000000E+00  0.00000000E+00
  0.00000000E+00  0.00000000E+00  0.00000000E+00
  0.00000000E+00  0.00000000E+00  0.00000000E+00
  0.00000000E+00  0.00000000E+00  0.00000000E+00
  0.00000000E+00  0.00000000E+00  0.00000000E+00
  0.00000000E+00  0.00000000E+00  0.00000000E+00
  0.00000000E+00  0.00000000E+00  0.00000000E+00
  0.00000000E+00  0.00000000E+00  0.00000000E+00
  0.00000000E+00  0.00000000E+00  0.00000000E+00
  0.00000000E+00  0.00000000E+00  0.00000000E+00
  0.00000000E+00  0.00000000E+00  0.00000000E+00
  0.00000000E+00  0.00000000E+00  0.00000000E+00
  0.00000000E+00  0.00000000E+00  0.00000000E+00
  0.00000000E+00  0.00000000E+00  0.00000000E+00
  0.00000000E+00  0.00000000E+00  0.00000000E+00
  0.00000000E+00  0.00000000E+00  0.00000000E+00
  0.00000000E+00  0.00000000E+00  0.00000000E+00
  0.00000000E+00  0.00000000E+00  0.00000000E+00
  0.00000000E+00  0.00000000E+00  0.00000000E+00
  0.00000000E+00  0.00000000E+00  0.00000000E+00
  0.00000000E+00  0.00000000E+00  0.00000000E+00
  0.00000000E+00  0.00000000E+00  0.00000000E+00
  0.00000000E+00  0.00000000E+00  0.00000000E+00
  0.00000000E+00  0.00000000E+00  0.00000000E+00
  0.00000000E+00  0.00000000E+00  0.00000000E+00
  0.00000000E+00  0.00000000E+00  0.00000000E+00
  0.00000000E+00  0.00000000E+00  0.00000000E+00
  0.00000000E+00  0.00000000E+00  0.00000000E+00
  0.00000000E+00  0.00000000E+00  0.00000000E+00
  0.00000000E+00  0.00000000E+00  0.00000000E+00
  0.00000000E+00  0.00000000E+00  0.00000000E+00
  0.00000000E+00  0.00000000E+00  0.00000000E+00
  0.00000000E+00  0.00000000E+00  0.00000000E+00
  0.00000000E+00  0.00000000E+00  0.00000000E+00
  0.00000000E+00  0.00000000E+00  0.00000000E+00
  0.00000000E+00  0.00000000E+00  0.00000000E+00
  0.00000000E+00  0.00000000E+00  0.00000000E+00
  0.00000000E+00  0.00000000E+00  0.00000000E+00
  0.00000000E+00  0.00000000E+00  0.00000000E+00
  0.00000000E+00  0.00000000E+00  0.00000000E+00
  0.00000000E+00  0.00000000E+00  0.00000000E+00
  0.00000000E+00  0.00000000E+00  0.00000000E+00
  0.00000000E+00  0.00000000E+00  0.00000000E+00
  0.00000000E+00  0.00000000E+00  0.00000000E+00
