Fe   Pt   H                             
   1.00000000000000     
    10.5600004195999997    0.0000000000000000    0.0000000000000000
     5.2800002097999998    9.1452286273999999    0.0000000000000000
     0.0000000000000000    0.0000000000000000   22.0000000000000000
   Fe   Pt   H 
    64    16     2
Selective dynamics
Direct
  0.7955083606979575  0.8665161437021747  0.3091011786509144   T   T   T
  0.0481366579561645  0.8638308783912108  0.3165191225160103   T   T   T
  0.0441111656277230  0.6153202977592470  0.3150271876666588   T   T   T
  0.8026267767292836  0.8615467289022831  0.0454892451863671   F   F   F
  0.0404195207448552  0.8617027190320172  0.0531321522045474   F   F   F
  0.0509400554688710  0.6062387638608655  0.0434550926181814   F   F   F
  0.6179624315601515  0.2089407032181825  0.1354205681000025   F   F   F
  0.3771081362849742  0.9520552039687331  0.1315154562954532   F   F   F
  0.0396863681377595  0.3710740601991798  0.3164650239100203   T   T   T
  0.0513505762289554  0.3533140917898123  0.0488741219272697   F   F   F
  0.8796363959013576  0.1964455081765166  0.1405242804454545   F   F   F
  0.9662677632062608  0.5318717600312093  0.2242246728273753   T   T   T
  0.2828121161497137  0.1252106328899709  0.3148778476241413   T   T   T
  0.5363746539853383  0.6165923155939700  0.3108666993554132   T   T   T
  0.2862499509893020  0.3738669011271183  0.3176827002399513   T   T   T
  0.2893256628225913  0.1234214636929067  0.0441537578181794   F   F   F
  0.5276420206625545  0.6272430854941717  0.0450746674136369   F   F   F
  0.2890943956913929  0.3689426548277837  0.0479302053681820   F   F   F
  0.6230886774246684  0.9589308993681485  0.1313536480500019   F   F   F
  0.7107445101983108  0.7815482782353275  0.2194521404454807   T   T   T
  0.8871502961281266  0.6953355374350920  0.1350361609363659   F   F   F
  0.6200488592634272  0.4538069531433777  0.1336872440681844   F   F   F
  0.2857767416633814  0.8650351596845777  0.3149411237750405   T   T   T
  0.2687421993710117  0.8846374397312431  0.0464864681272701   F   F   F
  0.6288621109649597  0.6995904720010202  0.1284261861000005   F   F   F
  0.2162487138331388  0.0281794163264217  0.2256332562291229   T   T   T
  0.5340651358644821  0.3717527230186545  0.3154290284006329   T   T   T
  0.5412157973262453  0.3693050226629708  0.0442518416318194   F   F   F
  0.5315671297290969  0.1263932630672374  0.3108842364653865   T   T   T
  0.5336944517523747  0.1355867285247427  0.0439851245909111   F   F   F
  0.8832888313795024  0.4470977980309314  0.1381582713954543   F   F   F
  0.1402232285351914  0.4469540011666240  0.1355590908681847   F   F   F
  0.0429789993660857  0.1175232622200490  0.3177622170856978   T   T   T
  0.0589967396284408  0.1018350567431128  0.0575243016954516   F   F   F
  0.1342935333655149  0.9375821956829213  0.1424705955181835   F   F   F
  0.4494877707024650  0.5309561659892582  0.2206942567454855   T   T   T
  0.3693613645044209  0.2161502974433560  0.1347813253954513   F   F   F
  0.1352238459015780  0.1985163722709657  0.1393178312181789   F   F   F
  0.9704001390823817  0.7766207251448298  0.2247801869089427   T   T   T
  0.7937294117547103  0.6141668979560373  0.3071315245463517   T   T   T
  0.2912295323188449  0.6141509240321672  0.3169553066523422   T   T   T
  0.8136378082480036  0.6035846078535201  0.0458125345909082   F   F   F
  0.2827328526180111  0.6136847731378765  0.0419772135318155   F   F   F
  0.3711045115008886  0.6919720544809493  0.1297637648999981   F   F   F
  0.3650899884529792  0.4537245194798061  0.1335287959590943   F   F   F
  0.2125109771844059  0.2888589296477565  0.2261738203435393   T   T   T
  0.7908102294479405  0.3708328917404448  0.3138570029278884   T   T   T
  0.7955667169556051  0.3623786591480993  0.0525784573590897   F   F   F
  0.9635411468492426  0.0288114550530113  0.2281446688115480   T   T   T
  0.4543998009295392  0.7779156099412036  0.2164420500935279   T   T   T
  0.7058841792571159  0.5364870017110968  0.2222535240514401   T   T   T
  0.2170955804001339  0.7686543200270833  0.2244259707949778   T   T   T
  0.4558282135878103  0.0385692421512285  0.2198061999961730   T   T   T
  0.1365430804763790  0.6811498989906610  0.1363537004090887   F   F   F
  0.7067529609577206  0.0357052745634714  0.2229722872692395   T   T   T
  0.7909575890862365  0.1218225790654586  0.3133327959907492   T   T   T
  0.5302161624339635  0.8673164174118074  0.3061343474068465   T   T   T
  0.7932310882983060  0.1130335594347969  0.0506874096272725   F   F   F
  0.5386045560987753  0.8807280389435022  0.0462069311772737   F   F   F
  0.2196653591606041  0.5302469186943585  0.2232861241956890   T   T   T
  0.9626310719532006  0.2806562091110166  0.2276832111963754   T   T   T
  0.8774744330611171  0.9478040731130761  0.1404896949318157   F   F   F
  0.7011252947249971  0.2903739975347614  0.2242938129249530   T   T   T
  0.4554209979861968  0.2933969935018628  0.2234905003310121   T   T   T
  0.8724338042269114  0.9520973725141838  0.4097716355474542   T   T   T
  0.1226649799152448  0.4524057365871855  0.4147454915613030   T   T   T
  0.1224293808646599  0.9522394876282704  0.4143643604070357   T   T   T
  0.8720837075259220  0.4537211723917001  0.4105695432001900   T   T   T
  0.3736606924321869  0.9519052742344755  0.4090522597041895   T   T   T
  0.8728273412201316  0.2019157111980414  0.4122428329054013   T   T   T
  0.1231630315729336  0.2022385601969690  0.4141711499381546   T   T   T
  0.6222957387515402  0.9512718912863489  0.4042218642499290   T   T   T
  0.8720978391777571  0.7022744298929169  0.4082493013041307   T   T   T
  0.3734104739360085  0.2015013483560413  0.4123467933225984   T   T   T
  0.3731680892775193  0.7017311210411188  0.4125961194183759   T   T   T
  0.6235796913261283  0.4516940561998721  0.4099101825428636   T   T   T
  0.1221692314685443  0.7016426908307281  0.4141220974904164   T   T   T
  0.6229679737299629  0.2015790004762680  0.4101528449785015   T   T   T
  0.3740541471966380  0.4499204144503159  0.4143664012369040   T   T   T
  0.6233104197899568  0.7023534931798496  0.4051179675812988   T   T   T
  0.3429185203970339  0.7009383218695510  0.5191639533489246   T   T   T
  0.4101677785641015  0.7099975434657473  0.5157683356155489   T   T   T
 
  0.00000000E+00  0.00000000E+00  0.00000000E+00
  0.00000000E+00  0.00000000E+00  0.00000000E+00
  0.00000000E+00  0.00000000E+00  0.00000000E+00
  0.00000000E+00  0.00000000E+00  0.00000000E+00
  0.00000000E+00  0.00000000E+00  0.00000000E+00
  0.00000000E+00  0.00000000E+00  0.00000000E+00
  0.00000000E+00  0.00000000E+00  0.00000000E+00
  0.00000000E+00  0.00000000E+00  0.00000000E+00
  0.00000000E+00  0.00000000E+00  0.00000000E+00
  0.00000000E+00  0.00000000E+00  0.00000000E+00
  0.00000000E+00  0.00000000E+00  0.00000000E+00
  0.00000000E+00  0.00000000E+00  0.00000000E+00
  0.00000000E+00  0.00000000E+00  0.00000000E+00
  0.00000000E+00  0.00000000E+00  0.00000000E+00
  0.00000000E+00  0.00000000E+00  0.00000000E+00
  0.00000000E+00  0.00000000E+00  0.00000000E+00
  0.00000000E+00  0.00000000E+00  0.00000000E+00
  0.00000000E+00  0.00000000E+00  0.00000000E+00
  0.00000000E+00  0.00000000E+00  0.00000000E+00
  0.00000000E+00  0.00000000E+00  0.00000000E+00
  0.00000000E+00  0.00000000E+00  0.00000000E+00
  0.00000000E+00  0.00000000E+00  0.00000000E+00
  0.00000000E+00  0.00000000E+00  0.00000000E+00
  0.00000000E+00  0.00000000E+00  0.00000000E+00
  0.00000000E+00  0.00000000E+00  0.00000000E+00
  0.00000000E+00  0.00000000E+00  0.00000000E+00
  0.00000000E+00  0.00000000E+00  0.00000000E+00
  0.00000000E+00  0.00000000E+00  0.00000000E+00
  0.00000000E+00  0.00000000E+00  0.00000000E+00
  0.00000000E+00  0.00000000E+00  0.00000000E+00
  0.00000000E+00  0.00000000E+00  0.00000000E+00
  0.00000000E+00  0.00000000E+00  0.00000000E+00
  0.00000000E+00  0.00000000E+00  0.00000000E+00
  0.00000000E+00  0.00000000E+00  0.00000000E+00
  0.00000000E+00  0.00000000E+00  0.00000000E+00
  0.00000000E+00  0.00000000E+00  0.00000000E+00
  0.00000000E+00  0.00000000E+00  0.00000000E+00
  0.00000000E+00  0.00000000E+00  0.00000000E+00
  0.00000000E+00  0.00000000E+00  0.00000000E+00
  0.00000000E+00  0.00000000E+00  0.00000000E+00
  0.00000000E+00  0.00000000E+00  0.00000000E+00
  0.00000000E+00  0.00000000E+00  0.00000000E+00
  0.00000000E+00  0.00000000E+00  0.00000000E+00
  0.00000000E+00  0.00000000E+00  0.00000000E+00
  0.00000000E+00  0.00000000E+00  0.00000000E+00
  0.00000000E+00  0.00000000E+00  0.00000000E+00
  0.00000000E+00  0.00000000E+00  0.00000000E+00
  0.00000000E+00  0.00000000E+00  0.00000000E+00
  0.00000000E+00  0.00000000E+00  0.00000000E+00
  0.00000000E+00  0.00000000E+00  0.00000000E+00
  0.00000000E+00  0.00000000E+00  0.00000000E+00
  0.00000000E+00  0.00000000E+00  0.00000000E+00
  0.00000000E+00  0.00000000E+00  0.00000000E+00
  0.00000000E+00  0.00000000E+00  0.00000000E+00
  0.00000000E+00  0.00000000E+00  0.00000000E+00
  0.00000000E+00  0.00000000E+00  0.00000000E+00
  0.00000000E+00  0.00000000E+00  0.00000000E+00
  0.00000000E+00  0.00000000E+00  0.00000000E+00
  0.00000000E+00  0.00000000E+00  0.00000000E+00
  0.00000000E+00  0.00000000E+00  0.00000000E+00
  0.00000000E+00  0.00000000E+00  0.00000000E+00
  0.00000000E+00  0.00000000E+00  0.00000000E+00
  0.00000000E+00  0.00000000E+00  0.00000000E+00
  0.00000000E+00  0.00000000E+00  0.00000000E+00
  0.00000000E+00  0.00000000E+00  0.00000000E+00
  0.00000000E+00  0.00000000E+00  0.00000000E+00
  0.00000000E+00  0.00000000E+00  0.00000000E+00
  0.00000000E+00  0.00000000E+00  0.00000000E+00
  0.00000000E+00  0.00000000E+00  0.00000000E+00
  0.00000000E+00  0.00000000E+00  0.00000000E+00
  0.00000000E+00  0.00000000E+00  0.00000000E+00
  0.00000000E+00  0.00000000E+00  0.00000000E+00
  0.00000000E+00  0.00000000E+00  0.00000000E+00
  0.00000000E+00  0.00000000E+00  0.00000000E+00
  0.00000000E+00  0.00000000E+00  0.00000000E+00
  0.00000000E+00  0.00000000E+00  0.00000000E+00
  0.00000000E+00  0.00000000E+00  0.00000000E+00
  0.00000000E+00  0.00000000E+00  0.00000000E+00
  0.00000000E+00  0.00000000E+00  0.00000000E+00
  0.00000000E+00  0.00000000E+00  0.00000000E+00
  0.00000000E+00  0.00000000E+00  0.00000000E+00
  0.00000000E+00  0.00000000E+00  0.00000000E+00
