Pt111\(1\1\1)\(2)                       
   1.00000000000000     
    10.5600004195999997    0.0000000000000000    0.0000000000000000
    -5.2800002097999998    9.1452286273999999    0.0000000000000000
     0.0000000000000000    0.0000000000000000   20.0000000000000000
   Pt   H 
    64     2
Selective dynamics
Direct
  0.9999984446215961  0.0000015553793773  0.0557922949150012   F   F   F
  0.3336777469789922  0.1691178660475074  0.1798737273333728   T   T   T
  0.1690270088118098  0.3334232516072575  0.3103074739287450   T   T   T
  0.0008101667847598  0.0015240363476110  0.4153864251716257   T   T   T
  0.9999984416169312  0.2500015483757210  0.0557922949150012   F   F   F
  0.3332144057197084  0.4167801169913119  0.1922947188969104   T   T   T
  0.1688891152075414  0.0871634930122909  0.2984468342480326   T   T   T
  0.9993669658810376  0.2497641240765915  0.4219788788330874   T   T   T
  0.2499984416169312  0.2500015483757210  0.0557922949150012   F   F   F
  0.0854602266696816  0.4166390104832587  0.1796813847765222   T   T   T
  0.4172322153723371  0.0850206920260703  0.2964760917552596   T   T   T
  0.2454370302586426  0.2459384947149132  0.4434862118796943   T   T   T
  0.2499984446215961  0.0000015553793773  0.0557922949150012   F   F   F
  0.0856211325782681  0.1690689509294145  0.1795620595686032   T   T   T
  0.4161778003485495  0.3337452116218742  0.3110280046433971   T   T   T
  0.2492248077337464  0.0008608998000810  0.4142168173619964   T   T   T
  0.4999984446215961  0.0000015553793773  0.0557922949150012   F   F   F
  0.8340882018269298  0.1670779035843637  0.1769154293462520   T   T   T
  0.6648998813280400  0.3326836820829158  0.2964725281029459   T   T   T
  0.5000044450240608  0.9995874765467789  0.4167527499579080   T   T   T
  0.4999984296188273  0.2500015483757210  0.0557922949150012   F   F   F
  0.8331301429443556  0.4162410508298109  0.1750403083739513   T   T   T
  0.6667648379199775  0.0831553201149902  0.2964229440590955   T   T   T
  0.5015408790497773  0.2483768711634582  0.4248304301386696   T   T   T
  0.7499984076207227  0.2500015483757210  0.0557922949150012   F   F   F
  0.5808680663226937  0.4163088453968840  0.1798671506823908   T   T   T
  0.9179103285406143  0.0844514399897704  0.2960400770383700   T   T   T
  0.7502975522871367  0.2498930503654364  0.4167304455962793   T   T   T
  0.7499984216197078  0.0000015553793773  0.0557922949150012   F   F   F
  0.5827091708643763  0.1672631981882873  0.1773488407078148   T   T   T
  0.9178162151010696  0.3324401297413431  0.2960149450524767   T   T   T
  0.7503180431468337  0.9995718658320740  0.4168818583053095   T   T   T
  0.9999984376190483  0.5000015423780582  0.0557922949150012   F   F   F
  0.3333549896808421  0.6645407136203474  0.1796970875802373   T   T   T
  0.1680088444867849  0.8335027864040612  0.2916535666303730   T   T   T
  0.9994788710240812  0.4998898904139253  0.4151544091735175   T   T   T
  0.9999984326223199  0.7500015093827130  0.0557922949150012   F   F   F
  0.3337458409282803  0.9168536914342198  0.1750460219784458   T   T   T
  0.1691010194693305  0.5808354611059272  0.2990036517826766   T   T   T
  0.9994704565638841  0.7504281103041990  0.4099106776001307   T   T   T
  0.2499984326223199  0.7500015093827130  0.0557922949150012   F   F   F
  0.0843140839755776  0.9184033213468794  0.1744386764090038   T   T   T
  0.4164971471202250  0.5808980191306361  0.3103189584137240   T   T   T
  0.2500158273167159  0.7504340425606983  0.4151890984924620   T   T   T
  0.2499984376190483  0.5000015423780582  0.0557922949150012   F   F   F
  0.0841687169566327  0.6658066128454507  0.1746248521120464   T   T   T
  0.4174860575853501  0.8321121075254894  0.2960400959183218   T   T   T
  0.2467049618084616  0.5031905518824402  0.4365106530853495   T   T   T
  0.4999984376190483  0.5000015423780582  0.0557922949150012   F   F   F
  0.8315769679925538  0.6656691911618040  0.1744409583974900   T   T   T
  0.6654796612467919  0.8320206707535220  0.2960570836202550   T   T   T
  0.5039557525454939  0.5044552459466871  0.4434615543450064   T   T   T
  0.4999984326223199  0.7500015093827130  0.0557922949150012   F   F   F
  0.8330759242017862  0.9169072825026205  0.1752196862230662   T   T   T
  0.6627598254109657  0.5810412786018659  0.2984523947669402   T   T   T
  0.5001465537759984  0.7505503494487229  0.4220037023567969   T   T   T
  0.7499984106242152  0.7500015093827130  0.0557922949150012   F   F   F
  0.5828991740089720  0.9158916613258938  0.1769221306927520   T   T   T
  0.9164169556001482  0.5819297619729369  0.2916490232279045   T   T   T
  0.7483582944729292  0.7490623233369718  0.4154051927640765   T   T   T
  0.7499983926190481  0.5000015423780582  0.0557922949150012   F   F   F
  0.5809130154619382  0.6643647638015366  0.1795708623151810   T   T   T
  0.9162497314264186  0.8336769352003301  0.2916920207669449   T   T   T
  0.7490253252099066  0.5006613591481681  0.4142219574570731   T   T   T
  0.3172878306215452  0.4328329490850464  0.4922465292353024   T   T   T
  0.4330236587286720  0.3161291946759377  0.4857724473911986   T   T   T
 
  0.00000000E+00  0.00000000E+00  0.00000000E+00
  0.00000000E+00  0.00000000E+00  0.00000000E+00
  0.00000000E+00  0.00000000E+00  0.00000000E+00
  0.00000000E+00  0.00000000E+00  0.00000000E+00
  0.00000000E+00  0.00000000E+00  0.00000000E+00
  0.00000000E+00  0.00000000E+00  0.00000000E+00
  0.00000000E+00  0.00000000E+00  0.00000000E+00
  0.00000000E+00  0.00000000E+00  0.00000000E+00
  0.00000000E+00  0.00000000E+00  0.00000000E+00
  0.00000000E+00  0.00000000E+00  0.00000000E+00
  0.00000000E+00  0.00000000E+00  0.00000000E+00
  0.00000000E+00  0.00000000E+00  0.00000000E+00
  0.00000000E+00  0.00000000E+00  0.00000000E+00
  0.00000000E+00  0.00000000E+00  0.00000000E+00
  0.00000000E+00  0.00000000E+00  0.00000000E+00
  0.00000000E+00  0.00000000E+00  0.00000000E+00
  0.00000000E+00  0.00000000E+00  0.00000000E+00
  0.00000000E+00  0.00000000E+00  0.00000000E+00
  0.00000000E+00  0.00000000E+00  0.00000000E+00
  0.00000000E+00  0.00000000E+00  0.00000000E+00
  0.00000000E+00  0.00000000E+00  0.00000000E+00
  0.00000000E+00  0.00000000E+00  0.00000000E+00
  0.00000000E+00  0.00000000E+00  0.00000000E+00
  0.00000000E+00  0.00000000E+00  0.00000000E+00
  0.00000000E+00  0.00000000E+00  0.00000000E+00
  0.00000000E+00  0.00000000E+00  0.00000000E+00
  0.00000000E+00  0.00000000E+00  0.00000000E+00
  0.00000000E+00  0.00000000E+00  0.00000000E+00
  0.00000000E+00  0.00000000E+00  0.00000000E+00
  0.00000000E+00  0.00000000E+00  0.00000000E+00
  0.00000000E+00  0.00000000E+00  0.00000000E+00
  0.00000000E+00  0.00000000E+00  0.00000000E+00
  0.00000000E+00  0.00000000E+00  0.00000000E+00
  0.00000000E+00  0.00000000E+00  0.00000000E+00
  0.00000000E+00  0.00000000E+00  0.00000000E+00
  0.00000000E+00  0.00000000E+00  0.00000000E+00
  0.00000000E+00  0.00000000E+00  0.00000000E+00
  0.00000000E+00  0.00000000E+00  0.00000000E+00
  0.00000000E+00  0.00000000E+00  0.00000000E+00
  0.00000000E+00  0.00000000E+00  0.00000000E+00
  0.00000000E+00  0.00000000E+00  0.00000000E+00
  0.00000000E+00  0.00000000E+00  0.00000000E+00
  0.00000000E+00  0.00000000E+00  0.00000000E+00
  0.00000000E+00  0.00000000E+00  0.00000000E+00
  0.00000000E+00  0.00000000E+00  0.00000000E+00
  0.00000000E+00  0.00000000E+00  0.00000000E+00
  0.00000000E+00  0.00000000E+00  0.00000000E+00
  0.00000000E+00  0.00000000E+00  0.00000000E+00
  0.00000000E+00  0.00000000E+00  0.00000000E+00
  0.00000000E+00  0.00000000E+00  0.00000000E+00
  0.00000000E+00  0.00000000E+00  0.00000000E+00
  0.00000000E+00  0.00000000E+00  0.00000000E+00
  0.00000000E+00  0.00000000E+00  0.00000000E+00
  0.00000000E+00  0.00000000E+00  0.00000000E+00
  0.00000000E+00  0.00000000E+00  0.00000000E+00
  0.00000000E+00  0.00000000E+00  0.00000000E+00
  0.00000000E+00  0.00000000E+00  0.00000000E+00
  0.00000000E+00  0.00000000E+00  0.00000000E+00
  0.00000000E+00  0.00000000E+00  0.00000000E+00
  0.00000000E+00  0.00000000E+00  0.00000000E+00
  0.00000000E+00  0.00000000E+00  0.00000000E+00
  0.00000000E+00  0.00000000E+00  0.00000000E+00
  0.00000000E+00  0.00000000E+00  0.00000000E+00
  0.00000000E+00  0.00000000E+00  0.00000000E+00
  0.00000000E+00  0.00000000E+00  0.00000000E+00
  0.00000000E+00  0.00000000E+00  0.00000000E+00
