Pt111\(1\1\1)\(2)                       
   1.00000000000000     
    10.5600004195999997    0.0000000000000000    0.0000000000000000
    -5.2800002097999998    9.1452286273999999    0.0000000000000000
     0.0000000000000000    0.0000000000000000   20.0000000000000000
   Pt   H 
    64     2
Selective dynamics
Direct
  0.9999984446215961  0.0000015553793773  0.0557922949150012   F   F   F
  0.3336777469789894  0.1691178660475042  0.1798737273333712   T   T   T
  0.1690270088118118  0.3334232516072573  0.3103074739287447   T   T   T
  0.0008101667847619  0.0015240363476098  0.4153864251716273   T   T   T
  0.9999984416169312  0.2500015483757210  0.0557922949150012   F   F   F
  0.3332144057197077  0.4167801169913153  0.1922947188969113   T   T   T
  0.1688891152075419  0.0871634930122943  0.2984468342480334   T   T   T
 -0.0006330341189654  0.2497641240765945  0.4219788788330874   T   T   T
  0.2499984416169312  0.2500015483757210  0.0557922949150012   F   F   F
  0.0854602266696799  0.4166390104832614  0.1796813847765222   T   T   T
  0.4172322153723352  0.0850206920260675  0.2964760917552565   T   T   T
  0.2454370302586444  0.2459384947149116  0.4434862118796946   T   T   T
  0.2499984446215961  0.0000015553793773  0.0557922949150012   F   F   F
  0.0856211325782685  0.1690689509294153  0.1795620595685998   T   T   T
  0.4161778003485514  0.3337452116218760  0.3110280046433996   T   T   T
  0.2492248077337485  0.0008608998000794  0.4142168173619988   T   T   T
  0.4999984446215961  0.0000015553793773  0.0557922949150012   F   F   F
  0.8340882018269319  0.1670779035843650  0.1769154293462508   T   T   T
  0.6648998813280401  0.3326836820829154  0.2964725281029467   T   T   T
  0.5000044450240584 -0.0004125234532238  0.4167527499579113   T   T   T
  0.4999984296188273  0.2500015483757210  0.0557922949150012   F   F   F
  0.8331301429443583  0.4162410508298098  0.1750403083739538   T   T   T
  0.6667648379199785  0.0831553201149894  0.2964229440590934   T   T   T
  0.5015408790497752  0.2483768711634566  0.4248304301386681   T   T   T
  0.7499984076207227  0.2500015483757210  0.0557922949150012   F   F   F
  0.5808680663226911  0.4163088453968857  0.1798671506823893   T   T   T
  0.9179103285406154  0.0844514399897734  0.2960400770383718   T   T   T
  0.7502975522871381  0.2498930503654384  0.4167304455962825   T   T   T
  0.7499984216197078  0.0000015553793773  0.0557922949150012   F   F   F
  0.5827091708643735  0.1672631981882844  0.1773488407078177   T   T   T
  0.9178162151010715  0.3324401297413456  0.2960149450524751   T   T   T
  0.7503180431468360 -0.0004281341679294  0.4168818583053119   T   T   T
  0.9999984376190483  0.5000015423780582  0.0557922949150012   F   F   F
  0.3333549896808393  0.6645407136203448  0.1796970875802374   T   T   T
  0.1680088444867815  0.8335027864040578  0.2916535666303729   T   T   T
 -0.0005211289759211  0.4998898904139230  0.4151544091735162   T   T   T
  0.9999984326223199  0.7500015093827130  0.0557922949150012   F   F   F
  0.3337458409282820  0.9168536914342225  0.1750460219784447   T   T   T
  0.1691010194693273  0.5808354611059268  0.2990036517826743   T   T   T
 -0.0005295434361175  0.7504281103041983  0.4099106776001315   T   T   T
  0.2499984326223199  0.7500015093827130  0.0557922949150012   F   F   F
  0.0843140839755807  0.9184033213468809  0.1744386764090070   T   T   T
  0.4164971471202255  0.5808980191306347  0.3103189584137259   T   T   T
  0.2500158273167156  0.7504340425606981  0.4151890984924592   T   T   T
  0.2499984376190483  0.5000015423780582  0.0557922949150012   F   F   F
  0.0841687169566349  0.6658066128454529  0.1746248521120497   T   T   T
  0.4174860575853512  0.8321121075254910  0.2960400959183233   T   T   T
  0.2467049618084632  0.5031905518824369  0.4365106530853470   T   T   T
  0.4999984376190483  0.5000015423780582  0.0557922949150012   F   F   F
  0.8315769679925556  0.6656691911618013  0.1744409583974919   T   T   T
  0.6654796612467924  0.8320206707535215  0.2960570836202576   T   T   T
  0.5039557525454936  0.5044552459466841  0.4434615543450098   T   T   T
  0.4999984326223199  0.7500015093827130  0.0557922949150012   F   F   F
  0.8330759242017828  0.9169072825026209  0.1752196862230672   T   T   T
  0.6627598254109676  0.5810412786018677  0.2984523947669374   T   T   T
  0.5001465537760007  0.7505503494487245  0.4220037023567965   T   T   T
  0.7499984106242152  0.7500015093827130  0.0557922949150012   F   F   F
  0.5828991740089717  0.9158916613258909  0.1769221306927545   T   T   T
  0.9164169556001488  0.5819297619729343  0.2916490232279021   T   T   T
  0.7483582944729309  0.7490623233369726  0.4154051927640787   T   T   T
  0.7499983926190481  0.5000015423780582  0.0557922949150012   F   F   F
  0.5809130154619371  0.6643647638015400  0.1795708623151811   T   T   T
  0.9162497314264151  0.8336769352003313  0.2916920207669434   T   T   T
  0.7490253252099098  0.5006613591481676  0.4142219574570748   T   T   T
  0.3172878306215424  0.4328329490850492  0.4922465292353010   T   T   T
  0.4330236587286739  0.3161291946759388  0.4857724473912022   T   T   T
 
  0.00000000E+00  0.00000000E+00  0.00000000E+00
  0.00000000E+00  0.00000000E+00  0.00000000E+00
  0.00000000E+00  0.00000000E+00  0.00000000E+00
  0.00000000E+00  0.00000000E+00  0.00000000E+00
  0.00000000E+00  0.00000000E+00  0.00000000E+00
  0.00000000E+00  0.00000000E+00  0.00000000E+00
  0.00000000E+00  0.00000000E+00  0.00000000E+00
  0.00000000E+00  0.00000000E+00  0.00000000E+00
  0.00000000E+00  0.00000000E+00  0.00000000E+00
  0.00000000E+00  0.00000000E+00  0.00000000E+00
  0.00000000E+00  0.00000000E+00  0.00000000E+00
  0.00000000E+00  0.00000000E+00  0.00000000E+00
  0.00000000E+00  0.00000000E+00  0.00000000E+00
  0.00000000E+00  0.00000000E+00  0.00000000E+00
  0.00000000E+00  0.00000000E+00  0.00000000E+00
  0.00000000E+00  0.00000000E+00  0.00000000E+00
  0.00000000E+00  0.00000000E+00  0.00000000E+00
  0.00000000E+00  0.00000000E+00  0.00000000E+00
  0.00000000E+00  0.00000000E+00  0.00000000E+00
  0.00000000E+00  0.00000000E+00  0.00000000E+00
  0.00000000E+00  0.00000000E+00  0.00000000E+00
  0.00000000E+00  0.00000000E+00  0.00000000E+00
  0.00000000E+00  0.00000000E+00  0.00000000E+00
  0.00000000E+00  0.00000000E+00  0.00000000E+00
  0.00000000E+00  0.00000000E+00  0.00000000E+00
  0.00000000E+00  0.00000000E+00  0.00000000E+00
  0.00000000E+00  0.00000000E+00  0.00000000E+00
  0.00000000E+00  0.00000000E+00  0.00000000E+00
  0.00000000E+00  0.00000000E+00  0.00000000E+00
  0.00000000E+00  0.00000000E+00  0.00000000E+00
  0.00000000E+00  0.00000000E+00  0.00000000E+00
  0.00000000E+00  0.00000000E+00  0.00000000E+00
  0.00000000E+00  0.00000000E+00  0.00000000E+00
  0.00000000E+00  0.00000000E+00  0.00000000E+00
  0.00000000E+00  0.00000000E+00  0.00000000E+00
  0.00000000E+00  0.00000000E+00  0.00000000E+00
  0.00000000E+00  0.00000000E+00  0.00000000E+00
  0.00000000E+00  0.00000000E+00  0.00000000E+00
  0.00000000E+00  0.00000000E+00  0.00000000E+00
  0.00000000E+00  0.00000000E+00  0.00000000E+00
  0.00000000E+00  0.00000000E+00  0.00000000E+00
  0.00000000E+00  0.00000000E+00  0.00000000E+00
  0.00000000E+00  0.00000000E+00  0.00000000E+00
  0.00000000E+00  0.00000000E+00  0.00000000E+00
  0.00000000E+00  0.00000000E+00  0.00000000E+00
  0.00000000E+00  0.00000000E+00  0.00000000E+00
  0.00000000E+00  0.00000000E+00  0.00000000E+00
  0.00000000E+00  0.00000000E+00  0.00000000E+00
  0.00000000E+00  0.00000000E+00  0.00000000E+00
  0.00000000E+00  0.00000000E+00  0.00000000E+00
  0.00000000E+00  0.00000000E+00  0.00000000E+00
  0.00000000E+00  0.00000000E+00  0.00000000E+00
  0.00000000E+00  0.00000000E+00  0.00000000E+00
  0.00000000E+00  0.00000000E+00  0.00000000E+00
  0.00000000E+00  0.00000000E+00  0.00000000E+00
  0.00000000E+00  0.00000000E+00  0.00000000E+00
  0.00000000E+00  0.00000000E+00  0.00000000E+00
  0.00000000E+00  0.00000000E+00  0.00000000E+00
  0.00000000E+00  0.00000000E+00  0.00000000E+00
  0.00000000E+00  0.00000000E+00  0.00000000E+00
  0.00000000E+00  0.00000000E+00  0.00000000E+00
  0.00000000E+00  0.00000000E+00  0.00000000E+00
  0.00000000E+00  0.00000000E+00  0.00000000E+00
  0.00000000E+00  0.00000000E+00  0.00000000E+00
  0.00000000E+00  0.00000000E+00  0.00000000E+00
  0.00000000E+00  0.00000000E+00  0.00000000E+00
