Pt   H                                  
   1.00000000000000     
    10.5600004195999997    0.0000000000000000    0.0000000000000000
    -5.2800002097999998    9.1452286273999999    0.0000000000000000
     0.0000000000000000    0.0000000000000000   20.0000000000000000
   Pt   H 
    64     2
Selective dynamics
Direct
  0.9999984446215961  0.0000015553793773  0.0557922949150011   F   F   F
  0.3362083619635819  0.1693349469969612  0.1781344621885740   T   T   T
  0.1809731080905274  0.3494676946938989  0.2987210002800409   T   T   T
  0.0209147209392285  0.0227354084703412  0.4219698617944802   T   T   T
  0.9999984416169311  0.2500015483757210  0.0557922949150011   F   F   F
  0.3363061847028138  0.4191232430791903  0.1778646153596047   T   T   T
  0.1809416499800719  0.0995578275494837  0.2995075166065791   T   T   T
  1.0208917747033526  0.2729440480453175  0.4206050322434199   T   T   T
  0.2499984416169312  0.2500015483757210  0.0557922949150011   F   F   F
  0.0866103271139056  0.4190670103620744  0.1775134758895440   T   T   T
  0.4309460866416675  0.0994472374065768  0.2979739870328707   T   T   T
  0.2711999913970726  0.2730249130670183  0.4203254813840965   T   T   T
  0.2499984446215890  0.0000015553793773  0.0557922949150011   F   F   F
  0.0863928418518603  0.1692790153258939  0.1787481633497756   T   T   T
  0.4309655723973624  0.3495440743420321  0.2984279548537152   T   T   T
  0.2712575463063852  1.0227732438964172  0.4201985198741104   T   T   T
  0.4999984446215961  0.0000015553793773  0.0557922949150011   F   F   F
  0.8365648215726446  0.1692111917978736  0.1780765697340308   T   T   T
  0.6807909522195421  0.3492396711361304  0.2967536060017456   T   T   T
  0.5212476212043936  1.0230167817626019  0.4201216879082257   T   T   T
  0.4999984296188272  0.2500015483757210  0.0557922949150011   F   F   F
  0.8363909994338028  0.4191756910241440  0.1766209748696027   T   T   T
  0.6811394138240502  0.0993070368329224  0.2981727742740985   T   T   T
  0.5214163317029952  0.2729734397550438  0.4195819346426456   T   T   T
  0.7499984076207225  0.2500015483757210  0.0557922949150011   F   F   F
  0.5860309299052959  0.4191479503060793  0.1774674626872133   T   T   T
  0.9313424904530736  0.0995985803266523  0.2995271691316067   T   T   T
  0.7712273016143820  0.2730600986476476  0.4184731174010208   T   T   T
  0.7499984216197076  0.0000015553793773  0.0557922949150011   F   F   F
  0.5862940333734454  0.1691974305591846  0.1775383549428737   T   T   T
  0.9311117614377983  0.3492703742419194  0.2970317822847737   T   T   T
  0.7711091242020502  0.0229529617599160  0.4210810327673782   T   T   T
  0.9999984376190483  0.5000015423780581  0.0557922949150011   F   F   F
  0.3366551398657185  0.6694149954163392  0.1770797910544600   T   T   T
  0.1810943728054235  0.8497429238700440  0.2971051923637803   T   T   T
  0.0212027481029511  0.5230560381479469  0.4179803170469411   T   T   T
  0.9999984326223195  0.7500015093827128  0.0557922949150011   F   F   F
  0.3365068622168323  0.9195629941393523  0.1773790308313114   T   T   T
  0.1811538908958917  0.5994562125916675  0.2965034789820541   T   T   T
  1.0212000091825177  0.7730514500492062  0.4187296897878502   T   T   T
  0.2499984326223198  0.7500015093827128  0.0557922949150011   F   F   F
  0.0865533605824171  0.9198148853745810  0.1780300867992859   T   T   T
  0.4312134253745467  0.5997194347674885  0.2972947258371649   T   T   T
  0.2712219464762903  0.7730735251079138  0.4180487115666560   T   T   T
  0.2499984376190482  0.5000015423780581  0.0557922949150011   F   F   F
  0.0866018996467574  0.6695300873051776  0.1766335706281649   T   T   T
  0.4313260526156504  0.8497869046982680  0.2973001209883801   T   T   T
  0.2712546527592280  0.5233214832800361  0.4191597386149097   T   T   T
  0.4999984376190483  0.5000015423780581  0.0557922949150011   F   F   F
  0.8364927753647075  0.6696289057667217  0.1768118319270293   T   T   T
  0.6813563982363262  0.8500046177353451  0.2979937274780102   T   T   T
  0.5213961959794395  0.5233407155828534  0.4195965975150892   T   T   T
  0.4999984326223197  0.7500015093827128  0.0557922949150011   F   F   F
  0.8366844722008779  0.9197055113192056  0.1782193020806229   T   T   T
  0.6809045822137807  0.5997146616349197  0.2967596148776304   T   T   T
  0.5212346859140617  0.7731181778822570  0.4193734767337209   T   T   T
  0.7499984106242152  0.7500015093827128  0.0557922949150011   F   F   F
  0.5866904611552128  0.9195395564110223  0.1777459608812430   T   T   T
  0.9310432698122650  0.5996346228707838  0.2960281306058969   T   T   T
  0.7712207798882645  0.7730351255847008  0.4189383857397162   T   T   T
  0.7499983926190480  0.5000015423780581  0.0557922949150011   F   F   F
  0.5865003043368526  0.6694992013872474  0.1772533344038063   T   T   T
  0.9313156814396861  0.8500346676151366  0.2978877891382448   T   T   T
  0.7711612285092848  0.5230479459087976  0.4177434207670453   T   T   T
  0.2811168644128490  0.2772934340903326  0.5460427425913881   T   T   T
  0.2086050876224550  0.2164268338744965  0.5605613462519567   T   T   T
 
             NaN             NaN             NaN
             NaN             NaN             NaN
             NaN             NaN             NaN
             NaN             NaN             NaN
             NaN             NaN             NaN
             NaN             NaN             NaN
             NaN             NaN             NaN
             NaN             NaN             NaN
             NaN             NaN             NaN
             NaN             NaN             NaN
             NaN             NaN             NaN
             NaN             NaN             NaN
             NaN             NaN             NaN
             NaN             NaN             NaN
             NaN             NaN             NaN
             NaN             NaN             NaN
             NaN             NaN             NaN
             NaN             NaN             NaN
             NaN             NaN             NaN
             NaN             NaN             NaN
             NaN             NaN             NaN
             NaN             NaN             NaN
             NaN             NaN             NaN
             NaN             NaN             NaN
             NaN             NaN             NaN
             NaN             NaN             NaN
             NaN             NaN             NaN
             NaN             NaN             NaN
             NaN             NaN             NaN
             NaN             NaN             NaN
             NaN             NaN             NaN
             NaN             NaN             NaN
             NaN             NaN             NaN
             NaN             NaN             NaN
             NaN             NaN             NaN
             NaN             NaN             NaN
             NaN             NaN             NaN
             NaN             NaN             NaN
             NaN             NaN             NaN
             NaN             NaN             NaN
             NaN             NaN             NaN
             NaN             NaN             NaN
             NaN             NaN             NaN
             NaN             NaN             NaN
             NaN             NaN             NaN
             NaN             NaN             NaN
             NaN             NaN             NaN
             NaN             NaN             NaN
             NaN             NaN             NaN
             NaN             NaN             NaN
             NaN             NaN             NaN
             NaN             NaN             NaN
             NaN             NaN             NaN
             NaN             NaN             NaN
             NaN             NaN             NaN
             NaN             NaN             NaN
             NaN             NaN             NaN
             NaN             NaN             NaN
             NaN             NaN             NaN
             NaN             NaN             NaN
             NaN             NaN             NaN
             NaN             NaN             NaN
             NaN             NaN             NaN
             NaN             NaN             NaN
             NaN             NaN             NaN
             NaN             NaN             NaN
