Pt111                                   
   1.00000000000000     
    11.2227001190000006    0.0000000000000000    0.0000000000000000
     5.6113500595000003    9.7191434021000003    0.0000000000000000
     0.0000000000000000    0.0000000000000000   22.0000000000000000
   Pt   H 
    80     2
Direct
  0.7853345621775093  0.8688736788513405  0.3267718590188262
  0.0353860899584785  0.8688495444456299  0.3267715040739397
  0.0354212559584774  0.6187852141458821  0.3267590085815536
  0.7853124028594592  0.8688378556745987  0.0225544232277480
  0.0353800342078765  0.8688303002326211  0.0225597418281263
  0.0353962754982782  0.6187354712547493  0.0225526651704541
  0.6186898364770573  0.2021509406459079  0.1258516880453627
  0.3686954549504777  0.9521530063795426  0.1258567073762415
  0.0353971536343674  0.3688448642276408  0.3267615594879328
  0.0354007205566925  0.3688091205866760  0.0225422641621757
  0.8687217850576420  0.2021427040266687  0.1258492105265698
  0.9520363842465446  0.5355173612016472  0.2263083429190774
  0.2853490161257260  0.1189030306854375  0.3267876275315854
  0.5354032122164568  0.6188323167125712  0.3266998137357293
  0.2853027929589806  0.3688304174225474  0.3267204008133292
  0.2853107108848414  0.1188113350558221  0.0225466117954843
  0.5353761085162358  0.6187597059504705  0.0225361729481910
  0.2853058149512868  0.3688163495983259  0.0225487714125076
  0.6187105576075083  0.9521503308564135  0.1258829318923531
  0.7020900314444515  0.7854696177716904  0.2263054125554309
  0.8687157967420451  0.7021520655433400  0.1258449222458747
  0.6187287791140843  0.4521447788622878  0.1258677128708106
  0.2853427084413305  0.8689178869511149  0.3267457703621947
  0.2853147539420747  0.8688364151019689  0.0225520893587394
  0.6186797100921816  0.7021763140668387  0.1258375673140610
  0.2020786480454149  0.0354624394017386  0.2263444405823712
  0.8686506704680470  0.9522169632742773  0.4300806858089092
  0.1186672424048450  0.4521985035213364  0.4300694247106268
  0.1185996229572131  0.9522608064285690  0.4300734574617688
  0.8686166272196822  0.4522620821602568  0.4300812747751489
  0.3687124166954523  0.9521716966120104  0.4300812032924282
  0.8687064611307638  0.2022307221074841  0.4300836035474518
  0.1185971531684082  0.2022523749337231  0.4300833589000149
  0.6186218920467981  0.9522454977098217  0.4300701603195909
  0.8686972702929425  0.7022423799708092  0.4300783344454295
  0.3686607033394022  0.2022810304723731  0.4300769146602714
  0.3685360622081448  0.7023339086187288  0.4299682106189324
  0.6186881399893812  0.4521064613041954  0.4299684865239770
  0.1185426136671915  0.7022645739809488  0.4300896205673942
  0.6185982727823199  0.2022159053805345  0.4300889062072609
  0.5353429925265979  0.3688650052717551  0.3267436083801494
  0.5353729611063632  0.3688433507573561  0.0225474242745206
  0.5353821478073799  0.1188218026241208  0.3267564263485151
  0.5353800254469108  0.1187632943919870  0.0225504632507755
  0.8687716541129022  0.4520860782889433  0.1258546055458228
  0.1187101663483187  0.4521388436961266  0.1258863059530207
  0.0353920809397523  0.1188259843544827  0.3267624887513503
  0.0354124650285011  0.1187772215354552  0.0225714233613555
  0.1187029283437372  0.9521444991137771  0.1258901261910537
  0.3686401430859410  0.4522048261283233  0.4300502382953203
  0.4520377482014117  0.5355151083939221  0.2262854070264895
  0.6186648326926425  0.7023219849538691  0.4299891432798170
  0.3687187852682360  0.2021422108371410  0.1258464642445490
  0.1186839986033957  0.2021571713833686  0.1258998386417906
  0.9520499454077186  0.7854812007592064  0.2263182221411850
  0.7854225080144726  0.6188364964024057  0.3267623721643956
  0.2853908461733223  0.6188368400974787  0.3267720554025245
  0.7853436110199157  0.6187816134808687  0.0225545785388298
  0.2853494854169815  0.6187860419401963  0.0225555333470474
  0.3687064602552640  0.7021609578139743  0.1258352820046740
  0.3687234568138990  0.4520892631041663  0.1258500558794772
  0.2020800529066761  0.2854525884185184  0.2262992555262729
  0.7853582540376932  0.3689058355523354  0.3267453923580889
  0.7853161675750985  0.3688343320378734  0.0225510573127354
  0.9520118648017252  0.0355033782484031  0.2263237078651835
  0.4520534517567549  0.7854836603653822  0.2262824975425010
  0.7020576927408220  0.5355453799666023  0.2262887479800161
  0.2020821796237672  0.7854492350612414  0.2263081321251193
  0.4520108313032741  0.0355412421929575  0.2263075022382209
  0.1186813605548226  0.7021500525746858  0.1258564911796242
  0.7020849619900787  0.0355112344079013  0.2263261024802642
  0.7853589194574251  0.1188987011923862  0.3267978075556390
  0.5353412844254803  0.8689118975011382  0.3267303882682791
  0.7853577110063917  0.1187841595578379  0.0225618413658817
  0.5353596213145132  0.8688520707207615  0.0225492070432729
  0.2020941147038374  0.5355364630788811  0.2263189763202726
  0.9519970579123916  0.2854969343934660  0.2263300859005138
  0.8687301855968390  0.9520995532352016  0.1258638197922698
  0.7020920531557605  0.2854527442336506  0.2263029743185473
  0.4520852927776205  0.2854896050696075  0.2263077260440665
  0.4732215170706691  0.5589540525379347  0.5669532610799831
  0.5112991476362526  0.5974131911882337  0.5721101470035301
 
  0.00000000E+00  0.00000000E+00  0.00000000E+00
  0.00000000E+00  0.00000000E+00  0.00000000E+00
  0.00000000E+00  0.00000000E+00  0.00000000E+00
  0.00000000E+00  0.00000000E+00  0.00000000E+00
  0.00000000E+00  0.00000000E+00  0.00000000E+00
  0.00000000E+00  0.00000000E+00  0.00000000E+00
  0.00000000E+00  0.00000000E+00  0.00000000E+00
  0.00000000E+00  0.00000000E+00  0.00000000E+00
  0.00000000E+00  0.00000000E+00  0.00000000E+00
  0.00000000E+00  0.00000000E+00  0.00000000E+00
  0.00000000E+00  0.00000000E+00  0.00000000E+00
  0.00000000E+00  0.00000000E+00  0.00000000E+00
  0.00000000E+00  0.00000000E+00  0.00000000E+00
  0.00000000E+00  0.00000000E+00  0.00000000E+00
  0.00000000E+00  0.00000000E+00  0.00000000E+00
  0.00000000E+00  0.00000000E+00  0.00000000E+00
  0.00000000E+00  0.00000000E+00  0.00000000E+00
  0.00000000E+00  0.00000000E+00  0.00000000E+00
  0.00000000E+00  0.00000000E+00  0.00000000E+00
  0.00000000E+00  0.00000000E+00  0.00000000E+00
  0.00000000E+00  0.00000000E+00  0.00000000E+00
  0.00000000E+00  0.00000000E+00  0.00000000E+00
  0.00000000E+00  0.00000000E+00  0.00000000E+00
  0.00000000E+00  0.00000000E+00  0.00000000E+00
  0.00000000E+00  0.00000000E+00  0.00000000E+00
  0.00000000E+00  0.00000000E+00  0.00000000E+00
  0.00000000E+00  0.00000000E+00  0.00000000E+00
  0.00000000E+00  0.00000000E+00  0.00000000E+00
  0.00000000E+00  0.00000000E+00  0.00000000E+00
  0.00000000E+00  0.00000000E+00  0.00000000E+00
  0.00000000E+00  0.00000000E+00  0.00000000E+00
  0.00000000E+00  0.00000000E+00  0.00000000E+00
  0.00000000E+00  0.00000000E+00  0.00000000E+00
  0.00000000E+00  0.00000000E+00  0.00000000E+00
  0.00000000E+00  0.00000000E+00  0.00000000E+00
  0.00000000E+00  0.00000000E+00  0.00000000E+00
  0.00000000E+00  0.00000000E+00  0.00000000E+00
  0.00000000E+00  0.00000000E+00  0.00000000E+00
  0.00000000E+00  0.00000000E+00  0.00000000E+00
  0.00000000E+00  0.00000000E+00  0.00000000E+00
  0.00000000E+00  0.00000000E+00  0.00000000E+00
  0.00000000E+00  0.00000000E+00  0.00000000E+00
  0.00000000E+00  0.00000000E+00  0.00000000E+00
  0.00000000E+00  0.00000000E+00  0.00000000E+00
  0.00000000E+00  0.00000000E+00  0.00000000E+00
  0.00000000E+00  0.00000000E+00  0.00000000E+00
  0.00000000E+00  0.00000000E+00  0.00000000E+00
  0.00000000E+00  0.00000000E+00  0.00000000E+00
  0.00000000E+00  0.00000000E+00  0.00000000E+00
  0.00000000E+00  0.00000000E+00  0.00000000E+00
  0.00000000E+00  0.00000000E+00  0.00000000E+00
  0.00000000E+00  0.00000000E+00  0.00000000E+00
  0.00000000E+00  0.00000000E+00  0.00000000E+00
  0.00000000E+00  0.00000000E+00  0.00000000E+00
  0.00000000E+00  0.00000000E+00  0.00000000E+00
  0.00000000E+00  0.00000000E+00  0.00000000E+00
  0.00000000E+00  0.00000000E+00  0.00000000E+00
  0.00000000E+00  0.00000000E+00  0.00000000E+00
  0.00000000E+00  0.00000000E+00  0.00000000E+00
  0.00000000E+00  0.00000000E+00  0.00000000E+00
  0.00000000E+00  0.00000000E+00  0.00000000E+00
  0.00000000E+00  0.00000000E+00  0.00000000E+00
  0.00000000E+00  0.00000000E+00  0.00000000E+00
  0.00000000E+00  0.00000000E+00  0.00000000E+00
  0.00000000E+00  0.00000000E+00  0.00000000E+00
  0.00000000E+00  0.00000000E+00  0.00000000E+00
  0.00000000E+00  0.00000000E+00  0.00000000E+00
  0.00000000E+00  0.00000000E+00  0.00000000E+00
  0.00000000E+00  0.00000000E+00  0.00000000E+00
  0.00000000E+00  0.00000000E+00  0.00000000E+00
  0.00000000E+00  0.00000000E+00  0.00000000E+00
  0.00000000E+00  0.00000000E+00  0.00000000E+00
  0.00000000E+00  0.00000000E+00  0.00000000E+00
  0.00000000E+00  0.00000000E+00  0.00000000E+00
  0.00000000E+00  0.00000000E+00  0.00000000E+00
  0.00000000E+00  0.00000000E+00  0.00000000E+00
  0.00000000E+00  0.00000000E+00  0.00000000E+00
  0.00000000E+00  0.00000000E+00  0.00000000E+00
  0.00000000E+00  0.00000000E+00  0.00000000E+00
  0.00000000E+00  0.00000000E+00  0.00000000E+00
  0.00000000E+00  0.00000000E+00  0.00000000E+00
  0.00000000E+00  0.00000000E+00  0.00000000E+00
