Pt111                                   
   1.00000000000000     
    10.9600000059999996    0.0000000000000000    0.0000000000000000
     5.4800000300000002    9.4916384585000007    0.0000000000000000
     0.0000000000000000    0.0000000000000000   22.0000000000000000
   Pt   H 
    80     1
Selective dynamics
Direct
  0.7845227676211655  0.8698400622692676  0.3309746100324001   T   T   T
  0.0345859781549289  0.8698978583673612  0.3306038644624765   T   T   T
  0.0345461677719248  0.6197010475658363  0.3306114882410243   T   T   T
  0.7871262532952485  0.8676518609729555  0.0175705019727275   F   F   F
  0.0365686021135900  0.8682827512166327  0.0176810409545425   F   F   F
  0.0371157800953696  0.6177982316054909  0.0178044132999986   F   F   F
  0.6193770254903512  0.2017362565980605  0.1233705105272733   F   F   F
  0.3693255820862689  0.9517875387162249  0.1233977878318200   F   F   F
  0.0346400380532899  0.3696225027896719  0.3303608706420963   T   T   T
  0.0368182396773449  0.3676614769681734  0.0178421158227238   F   F   F
  0.8693255546713345  0.2018245932539173  0.1233170256818212   F   F   F
  0.9519489896196656  0.5358772296268052  0.2270413440490974   T   T   T
  0.2843985302262806  0.1199002203266581  0.3303791017492181   T   T   T
  0.5342922424155362  0.6194977759990574  0.3325849513743725   T   T   T
  0.2851383450274250  0.3703693341586789  0.3314534398010777   T   T   T
  0.2872128547457962  0.1176959981445123  0.0177676359681840   F   F   F
  0.5367315615137613  0.6179303911589216  0.0177242445954562   F   F   F
  0.2867157965510287  0.3680652439486281  0.0178471869227295   F   F   F
  0.6193413903194696  0.9517678995674288  0.1233260428863616   F   F   F
  0.7019012455284857  0.7857188568282992  0.2269465775979941   T   T   T
  0.8692591142949553  0.7018352475103384  0.1234163191909090   F   F   F
  0.6193852725550784  0.4518040581981566  0.1233923820318168   F   F   F
  0.2851289430228335  0.8686924352239661  0.3314100887009465   T   T   T
  0.2869634377139860  0.8676794065333056  0.0177295031954543   F   F   F
  0.6193152036057583  0.7018195042537201  0.1233357968227295   F   F   F
  0.2021691796868115  0.0354794816098055  0.2269440384612767   T   T   T
  0.8672908184065252  0.9541745903898828  0.4369416730316276   T   T   T
  0.1165914147822451  0.4537923449173744  0.4364860256878410   T   T   T
  0.1166452383732030  0.9543316729458394  0.4364857161534543   T   T   T
  0.8678181647795961  0.4538187834651297  0.4364059865023432   T   T   T
  0.3671626950604802  0.9543431213190731  0.4365183750900000   T   T   T
  0.8679082246830746  0.2031882169623555  0.4364466085920757   T   T   T
  0.1171675638371311  0.2038114787146290  0.4362329455557489   T   T   T
  0.6165317574682069  0.9542200353681013  0.4369922126727456   T   T   T
  0.8673276660373944  0.7034068845271504  0.4369626246213587   T   T   T
  0.3670011554456039  0.2032595876510047  0.4365143986465158   T   T   T
  0.3646690639584139  0.7087509058418568  0.4393547400839143   T   T   T
  0.6221346862476514  0.4512652758500827  0.4393833583762946   T   T   T
  0.1131166775643880  0.7058472244931958  0.4363294652809777   T   T   T
  0.6190755733828168  0.1999431031921970  0.4362199509876432   T   T   T
  0.5342359500933127  0.3704293105226191  0.3325555118378403   T   T   T
  0.5373605491707139  0.3675441637661478  0.0177014946454577   F   F   F
  0.5344425949990148  0.1198710195565462  0.3305607804375639   T   T   T
  0.5368502505630701  0.1179870096292106  0.0176395756863670   F   F   F
  0.8692850783751567  0.4518704855176097  0.1234823188227239   F   F   F
  0.1193480072535920  0.4517884556443263  0.1235586076681798   F   F   F
  0.0346545483978895  0.1199256507174782  0.3303460542684281   T   T   T
  0.0370496372583276  0.1177162597253627  0.0176322235318196   F   F   F
  0.1193360579660450  0.9517973685259520  0.1234471498727245   F   F   F
  0.3647622428590138  0.4513616015869802  0.4394293814076084   T   T   T
  0.4519531460549983  0.5358021220967638  0.2282518246173051   T   T   T
  0.6191442059498353  0.7058324967461774  0.4362662600487915   T   T   T
  0.3693034247322373  0.2018564972925461  0.1235070294999971   F   F   F
  0.1193915680998785  0.2017082400652868  0.1234534575863648   F   F   F
  0.9521138479294197  0.7857230327023660  0.2269811555630957   T   T   T
  0.7846293562268080  0.6196886029753500  0.3305493773116820   T   T   T
  0.2851340179264392  0.6195220339845533  0.3326420288024167   T   T   T
  0.7868311899066072  0.6180357900112270  0.0176707095090904   F   F   F
  0.2869762919410803  0.6177635427684294  0.0177778366772756   F   F   F
  0.3692206563263127  0.7018148911302617  0.1234805236045489   F   F   F
  0.3694185980490303  0.4518351368998239  0.1234685466863610   F   F   F
  0.2021621814405727  0.2859339166822971  0.2269942772108442   T   T   T
  0.7834234386311762  0.3703499094075566  0.3313790509350752   T   T   T
  0.7870004818535818  0.3680513243286825  0.0176074950090879   F   F   F
  0.9519489097124096  0.0357546753080743  0.2269909403248583   T   T   T
  0.4520505511227046  0.7852323710960312  0.2273108287512805   T   T   T
  0.7013903325953715  0.5358150919811064  0.2273170520097794   T   T   T
  0.2024955500845375  0.7852412698930371  0.2273834585614730   T   T   T
  0.4521098558324974  0.0356886736998717  0.2270310095042127   T   T   T
  0.1193391691950794  0.7018779650455400  0.1234559250681784   F   F   F
  0.7019037951009246  0.0358894535400116  0.2269338968345788   T   T   T
  0.7846449832588617  0.1199054754950299  0.3305240792217666   T   T   T
  0.5344746564034235  0.8698789581461258  0.3305906424398122   T   T   T
  0.7868537854459206  0.1178772241159294  0.0175177445818164   F   F   F
  0.5370722511533614  0.8679527297441894  0.0175638524272728   F   F   F
  0.2025291386597017  0.5358496352314773  0.2274173982559334   T   T   T
  0.9516644095373576  0.2859186413862861  0.2269222054636001   T   T   T
  0.8691734336427359  0.9518856255116788  0.1233850648045447   F   F   F
  0.7014757666447742  0.2862863739368852  0.2272705915031938   T   T   T
  0.4520528390393183  0.2862650457070361  0.2273365304387491   T   T   T
  0.4509782001550378  0.5372550622719896  0.4800836282078407   T   T   T
 
  0.00000000E+00  0.00000000E+00  0.00000000E+00
  0.00000000E+00  0.00000000E+00  0.00000000E+00
  0.00000000E+00  0.00000000E+00  0.00000000E+00
  0.00000000E+00  0.00000000E+00  0.00000000E+00
  0.00000000E+00  0.00000000E+00  0.00000000E+00
  0.00000000E+00  0.00000000E+00  0.00000000E+00
  0.00000000E+00  0.00000000E+00  0.00000000E+00
  0.00000000E+00  0.00000000E+00  0.00000000E+00
  0.00000000E+00  0.00000000E+00  0.00000000E+00
  0.00000000E+00  0.00000000E+00  0.00000000E+00
  0.00000000E+00  0.00000000E+00  0.00000000E+00
  0.00000000E+00  0.00000000E+00  0.00000000E+00
  0.00000000E+00  0.00000000E+00  0.00000000E+00
  0.00000000E+00  0.00000000E+00  0.00000000E+00
  0.00000000E+00  0.00000000E+00  0.00000000E+00
  0.00000000E+00  0.00000000E+00  0.00000000E+00
  0.00000000E+00  0.00000000E+00  0.00000000E+00
  0.00000000E+00  0.00000000E+00  0.00000000E+00
  0.00000000E+00  0.00000000E+00  0.00000000E+00
  0.00000000E+00  0.00000000E+00  0.00000000E+00
  0.00000000E+00  0.00000000E+00  0.00000000E+00
  0.00000000E+00  0.00000000E+00  0.00000000E+00
  0.00000000E+00  0.00000000E+00  0.00000000E+00
  0.00000000E+00  0.00000000E+00  0.00000000E+00
  0.00000000E+00  0.00000000E+00  0.00000000E+00
  0.00000000E+00  0.00000000E+00  0.00000000E+00
  0.00000000E+00  0.00000000E+00  0.00000000E+00
  0.00000000E+00  0.00000000E+00  0.00000000E+00
  0.00000000E+00  0.00000000E+00  0.00000000E+00
  0.00000000E+00  0.00000000E+00  0.00000000E+00
  0.00000000E+00  0.00000000E+00  0.00000000E+00
  0.00000000E+00  0.00000000E+00  0.00000000E+00
  0.00000000E+00  0.00000000E+00  0.00000000E+00
  0.00000000E+00  0.00000000E+00  0.00000000E+00
  0.00000000E+00  0.00000000E+00  0.00000000E+00
  0.00000000E+00  0.00000000E+00  0.00000000E+00
  0.00000000E+00  0.00000000E+00  0.00000000E+00
  0.00000000E+00  0.00000000E+00  0.00000000E+00
  0.00000000E+00  0.00000000E+00  0.00000000E+00
  0.00000000E+00  0.00000000E+00  0.00000000E+00
  0.00000000E+00  0.00000000E+00  0.00000000E+00
  0.00000000E+00  0.00000000E+00  0.00000000E+00
  0.00000000E+00  0.00000000E+00  0.00000000E+00
  0.00000000E+00  0.00000000E+00  0.00000000E+00
  0.00000000E+00  0.00000000E+00  0.00000000E+00
  0.00000000E+00  0.00000000E+00  0.00000000E+00
  0.00000000E+00  0.00000000E+00  0.00000000E+00
  0.00000000E+00  0.00000000E+00  0.00000000E+00
  0.00000000E+00  0.00000000E+00  0.00000000E+00
  0.00000000E+00  0.00000000E+00  0.00000000E+00
  0.00000000E+00  0.00000000E+00  0.00000000E+00
  0.00000000E+00  0.00000000E+00  0.00000000E+00
  0.00000000E+00  0.00000000E+00  0.00000000E+00
  0.00000000E+00  0.00000000E+00  0.00000000E+00
  0.00000000E+00  0.00000000E+00  0.00000000E+00
  0.00000000E+00  0.00000000E+00  0.00000000E+00
  0.00000000E+00  0.00000000E+00  0.00000000E+00
  0.00000000E+00  0.00000000E+00  0.00000000E+00
  0.00000000E+00  0.00000000E+00  0.00000000E+00
  0.00000000E+00  0.00000000E+00  0.00000000E+00
  0.00000000E+00  0.00000000E+00  0.00000000E+00
  0.00000000E+00  0.00000000E+00  0.00000000E+00
  0.00000000E+00  0.00000000E+00  0.00000000E+00
  0.00000000E+00  0.00000000E+00  0.00000000E+00
  0.00000000E+00  0.00000000E+00  0.00000000E+00
  0.00000000E+00  0.00000000E+00  0.00000000E+00
  0.00000000E+00  0.00000000E+00  0.00000000E+00
  0.00000000E+00  0.00000000E+00  0.00000000E+00
  0.00000000E+00  0.00000000E+00  0.00000000E+00
  0.00000000E+00  0.00000000E+00  0.00000000E+00
  0.00000000E+00  0.00000000E+00  0.00000000E+00
  0.00000000E+00  0.00000000E+00  0.00000000E+00
  0.00000000E+00  0.00000000E+00  0.00000000E+00
  0.00000000E+00  0.00000000E+00  0.00000000E+00
  0.00000000E+00  0.00000000E+00  0.00000000E+00
  0.00000000E+00  0.00000000E+00  0.00000000E+00
  0.00000000E+00  0.00000000E+00  0.00000000E+00
  0.00000000E+00  0.00000000E+00  0.00000000E+00
  0.00000000E+00  0.00000000E+00  0.00000000E+00
  0.00000000E+00  0.00000000E+00  0.00000000E+00
  0.00000000E+00  0.00000000E+00  0.00000000E+00
