Pt   H                                  
   1.00000000000000     
    10.5600004195999997    0.0000000000000000    0.0000000000000000
    -5.2800002097999998    9.1452286273999999    0.0000000000000000
     0.0000000000000000    0.0000000000000000   20.0000000000000000
   Pt   H 
    64     2
Selective dynamics
Direct
  0.9999984446215961  0.0000015553793773  0.0557922949150012   F   F   F
  0.3332860589284950  0.1667047625396552  0.1775114228662091   T   T   T
  0.1665172841503032  0.3335316018885492  0.2976900997662383   T   T   T
  0.9997523102460603  0.0000884552974507  0.4193328889902703   T   T   T
  0.9999984416169312  0.2500015483757210  0.0557922949150012   F   F   F
  0.3333457945114301  0.4166562664557411  0.1776188921316307   T   T   T
  0.1667246567878430  0.0836532838659329  0.2979703646655670   T   T   T
  0.9996326661585492  0.2501617603504178  0.4189537689472811   T   T   T
  0.2499984416169312  0.2500015483757210  0.0557922949150012   F   F   F
  0.0834056756404758  0.4165679082912863  0.1774298247767127   T   T   T
  0.4165210032739984  0.0833872211419199  0.2970594750297344   T   T   T
  0.2495513975853398  0.2499546799331669  0.4193760816404388   T   T   T
  0.2499984446215961  0.0000015553793773  0.0557922949150012   F   F   F
  0.0834121996617392  0.1667078247241009  0.1777606611844418   T   T   T
  0.4165222037462858  0.3336544310883637  0.2975507553277516   T   T   T
  0.2499986935189535  0.0001141735589595  0.4194527884482347   T   T   T
  0.4999984446215961  0.0000015553793773  0.0557922949150012   F   F   F
  0.8333334315891607  0.1666372094047637  0.1775979965438262   T   T   T
  0.6668512941850937  0.3337254753631452  0.2970652552005030   T   T   T
  0.4999394066936632  0.0001970839444918  0.4193961717916175   T   T   T
  0.4999984296188273  0.2500015483757210  0.0557922949150012   F   F   F
  0.8332933226526531  0.4166256268500672  0.1773547429826294   T   T   T
  0.6666409490531799  0.0836166839947457  0.2977093706789472   T   T   T
  0.5002324704943664  0.2500193976871492  0.4176997999686919   T   T   T
  0.7499984076207227  0.2500015483757210  0.0557922949150012   F   F   F
  0.5832942549260370  0.4167186837940270  0.1775101975389524   T   T   T
  0.9165151200705888  0.0834945254968812  0.2975779948864187   T   T   T
  0.7500234828479211  0.2502943978281939  0.4194224704386492   T   T   T
  0.7499984216197078  0.0000015553793773  0.0557922949150012   F   F   F
  0.5833586179674531  0.1666746693598892  0.1773011608830894   T   T   T
  0.9166365316370628  0.3335910150956874  0.2973882302736029   T   T   T
  0.7499300180799564  0.0003162596738785  0.4197079468180036   T   T   T
  0.9999984376190483  0.5000015423780582  0.0557922949150012   F   F   F
  0.3334602346939630  0.6666210274242609  0.1774194923481097   T   T   T
  0.1666890151149024  0.8337217756814335  0.2969863680167843   T   T   T
  0.9999396553367493  0.5003778146594290  0.4188887547605338   T   T   T
  0.9999984326223199  0.7500015093827130  0.0557922949150012   F   F   F
  0.3334075625945377  0.9167390593539522  0.1773524296607699   T   T   T
  0.1665566292448759  0.5837013539218259  0.2968159279881446   T   T   T
  0.9999537583841343  0.7502810581988106  0.4180899223977944   T   T   T
  0.2499984326223199  0.7500015093827130  0.0557922949150012   F   F   F
  0.0834571084656820  0.9169921497145068  0.1774646091870781   T   T   T
  0.4166962761033507  0.5837222524758477  0.2976376258625753   T   T   T
  0.2498648760074009  0.7502942064628870  0.4189747257606656   T   T   T
  0.2499984376190483  0.5000015423780582  0.0557922949150012   F   F   F
  0.0833380965617681  0.6666860262306966  0.1769549392878585   T   T   T
  0.4166455025145589  0.8336087821039749  0.2973982645476970   T   T   T
  0.2497457037162222  0.5004657939956686  0.4186203414647123   T   T   T
  0.4999984376190483  0.5000015423780582  0.0557922949150012   F   F   F
  0.8330314264880387  0.6665601208698434  0.1774834141120656   T   T   T
  0.6667591241426036  0.8337287121679664  0.2976011876118848   T   T   T
  0.5002523404552197  0.5007047721818981  0.4191721633269082   T   T   T
  0.4999984326223199  0.7500015093827130  0.0557922949150012   F   F   F
  0.8332766757613858  0.9167519304684117  0.1774288964869734   T   T   T
  0.6666098371775000  0.5835180841098874  0.2979587597113997   T   T   T
  0.5000635601775153  0.7505918460806142  0.4189652148812880   T   T   T
  0.7499984106242152  0.7500015093827130  0.0557922949150012   F   F   F
  0.5834031143933168  0.9167179337735794  0.1776149013742199   T   T   T
  0.9165112996732002  0.5835481718972815  0.2970060408098804   T   T   T
  0.7501472308162549  0.7504828495465100  0.4194040478235940   T   T   T
  0.7499983926190481  0.5000015423780582  0.0557922949150012   F   F   F
  0.5833157192697404  0.6666105611355859  0.1777524549773337   T   T   T
  0.9165227647810860  0.8337254178051264  0.2970266566018497   T   T   T
  0.7500980810948775  0.5002474818221384  0.4194864999892573   T   T   T
  0.3603123609578521  0.3995954113651958  0.5406119678690635   T   T   T
  0.3916862394049900  0.3488329765161235  0.5424181761316060   T   T   T
 
  0.00000000E+00  0.00000000E+00  0.00000000E+00
  0.00000000E+00  0.00000000E+00  0.00000000E+00
  0.00000000E+00  0.00000000E+00  0.00000000E+00
  0.00000000E+00  0.00000000E+00  0.00000000E+00
  0.00000000E+00  0.00000000E+00  0.00000000E+00
  0.00000000E+00  0.00000000E+00  0.00000000E+00
  0.00000000E+00  0.00000000E+00  0.00000000E+00
  0.00000000E+00  0.00000000E+00  0.00000000E+00
  0.00000000E+00  0.00000000E+00  0.00000000E+00
  0.00000000E+00  0.00000000E+00  0.00000000E+00
  0.00000000E+00  0.00000000E+00  0.00000000E+00
  0.00000000E+00  0.00000000E+00  0.00000000E+00
  0.00000000E+00  0.00000000E+00  0.00000000E+00
  0.00000000E+00  0.00000000E+00  0.00000000E+00
  0.00000000E+00  0.00000000E+00  0.00000000E+00
  0.00000000E+00  0.00000000E+00  0.00000000E+00
  0.00000000E+00  0.00000000E+00  0.00000000E+00
  0.00000000E+00  0.00000000E+00  0.00000000E+00
  0.00000000E+00  0.00000000E+00  0.00000000E+00
  0.00000000E+00  0.00000000E+00  0.00000000E+00
  0.00000000E+00  0.00000000E+00  0.00000000E+00
  0.00000000E+00  0.00000000E+00  0.00000000E+00
  0.00000000E+00  0.00000000E+00  0.00000000E+00
  0.00000000E+00  0.00000000E+00  0.00000000E+00
  0.00000000E+00  0.00000000E+00  0.00000000E+00
  0.00000000E+00  0.00000000E+00  0.00000000E+00
  0.00000000E+00  0.00000000E+00  0.00000000E+00
  0.00000000E+00  0.00000000E+00  0.00000000E+00
  0.00000000E+00  0.00000000E+00  0.00000000E+00
  0.00000000E+00  0.00000000E+00  0.00000000E+00
  0.00000000E+00  0.00000000E+00  0.00000000E+00
  0.00000000E+00  0.00000000E+00  0.00000000E+00
  0.00000000E+00  0.00000000E+00  0.00000000E+00
  0.00000000E+00  0.00000000E+00  0.00000000E+00
  0.00000000E+00  0.00000000E+00  0.00000000E+00
  0.00000000E+00  0.00000000E+00  0.00000000E+00
  0.00000000E+00  0.00000000E+00  0.00000000E+00
  0.00000000E+00  0.00000000E+00  0.00000000E+00
  0.00000000E+00  0.00000000E+00  0.00000000E+00
  0.00000000E+00  0.00000000E+00  0.00000000E+00
  0.00000000E+00  0.00000000E+00  0.00000000E+00
  0.00000000E+00  0.00000000E+00  0.00000000E+00
  0.00000000E+00  0.00000000E+00  0.00000000E+00
  0.00000000E+00  0.00000000E+00  0.00000000E+00
  0.00000000E+00  0.00000000E+00  0.00000000E+00
  0.00000000E+00  0.00000000E+00  0.00000000E+00
  0.00000000E+00  0.00000000E+00  0.00000000E+00
  0.00000000E+00  0.00000000E+00  0.00000000E+00
  0.00000000E+00  0.00000000E+00  0.00000000E+00
  0.00000000E+00  0.00000000E+00  0.00000000E+00
  0.00000000E+00  0.00000000E+00  0.00000000E+00
  0.00000000E+00  0.00000000E+00  0.00000000E+00
  0.00000000E+00  0.00000000E+00  0.00000000E+00
  0.00000000E+00  0.00000000E+00  0.00000000E+00
  0.00000000E+00  0.00000000E+00  0.00000000E+00
  0.00000000E+00  0.00000000E+00  0.00000000E+00
  0.00000000E+00  0.00000000E+00  0.00000000E+00
  0.00000000E+00  0.00000000E+00  0.00000000E+00
  0.00000000E+00  0.00000000E+00  0.00000000E+00
  0.00000000E+00  0.00000000E+00  0.00000000E+00
  0.00000000E+00  0.00000000E+00  0.00000000E+00
  0.00000000E+00  0.00000000E+00  0.00000000E+00
  0.00000000E+00  0.00000000E+00  0.00000000E+00
  0.00000000E+00  0.00000000E+00  0.00000000E+00
  0.00000000E+00  0.00000000E+00  0.00000000E+00
  0.00000000E+00  0.00000000E+00  0.00000000E+00
