Pt111\(1\1\1)\(2)                       
   1.00000000000000     
    10.5600004195999997    0.0000000000000000    0.0000000000000000
    -5.2800002097999998    9.1452286273999999    0.0000000000000000
     0.0000000000000000    0.0000000000000000   20.0000000000000000
   Pt
    64
Selective dynamics
Direct
  0.0001422006336089  0.0000372831310109  0.0551339279409502   T   T   T
  0.3334026153792516  0.1667734944200603  0.1785575372770021   T   T   T
  0.1667906096979274  0.3335262347683411  0.3006919512620181   T   T   T
  0.0002126760195056  0.0002050471517122  0.4191301589180566   T   T   T
  0.0002250894373700  0.2500800334150208  0.0566805641113172   T   T   T
  0.3333391965722309  0.4166840394181028  0.1814541434249078   T   T   T
  0.1669199134385703  0.0838310762726966  0.2980947012873242   T   T   T
  0.0000358830807257  0.2501912790886468  0.4197139094463483   T   T   T
  0.2500364085880555  0.2500820624863618  0.0576418412703872   T   T   T
  0.0833744071848733  0.4166407596617869  0.1785402529893798   T   T   T
  0.4167646863961057  0.0835316134013679  0.2971435522382002   T   T   T
  0.2500312539603526  0.2500546432698847  0.4222496271637704   T   T   T
  0.2498853198693805  0.0000374806957534  0.0551362904123796   T   T   T
  0.0833661207165872  0.1667731456145829  0.1785570522771641   T   T   T
  0.4167443178765668  0.3335277624022301  0.3006922541507486   T   T   T
  0.2500044841309430  0.0002067007733996  0.4191282765813146   T   T   T
  0.4999516767125569 -0.0000581744099075  0.0553570462147015   T   T   T
  0.8330999316992543  0.1665746722791320  0.1773137267334853   T   T   T
  0.6667623815624826  0.3335269141544744  0.2971195319856514   T   T   T
  0.5000948665662663  0.0002403622941245  0.4189816676619449   T   T   T
  0.4998463709589030  0.2500802890425289  0.0566805425541672   T   T   T
  0.8333868016685897  0.4167769919477410  0.1764780868147273   T   T   T
  0.6667742431986829  0.0835402864343629  0.2974267298566896   T   T   T
  0.5001602820187165  0.2501906749709658  0.4197111857565448   T   T   T
  0.7499765927360338  0.2499603150625441  0.0553466903787766   T   T   T
  0.5832604611216563  0.4166413871118968  0.1785403974210207   T   T   T
  0.9167746276335440  0.0835317253437830  0.2971429079361826   T   T   T
  0.7501542778894410  0.2503046664307245  0.4189870500345816   T   T   T
  0.7499788573689938 -0.0000578814280322  0.0553574368584106   T   T   T
  0.5834680340860484  0.1665745855253092  0.1773136596445617   T   T   T
  0.9167721899218867  0.3335229824234769  0.2971202439677776   T   T   T
  0.7501553650933547  0.0002412854984802  0.4189785252873497   T   T   T
  0.0001438838401277  0.5000244320629564  0.0551026280737390   T   T   T
  0.3333951029295396  0.6666629933025411  0.1785436222126552   T   T   T
  0.1670155659470628  0.8336570382487035  0.2965496934016089   T   T   T
  0.0002251275831708  0.5003894111083400  0.4191166696880956   T   T   T
  0.9999649852295844  0.7499415474318694  0.0549709603419620   T   T   T
  0.3332663805027085  0.9166444984686147  0.1764967988663782   T   T   T
  0.1669224812775809  0.5833727207627081  0.2980767136586197   T   T   T
  0.0001092639669970  0.7502107444165804  0.4175870913260771   T   T   T
  0.2498946788137777  0.7497812175833571  0.0551070992688897   T   T   T
  0.0834031046438925  0.9168095653448953  0.1766988871918505   T   T   T
  0.4167425201047478  0.5834809578657949  0.3006678673325988   T   T   T
  0.2500129655886734  0.7501864343719075  0.4191612132471108   T   T   T
  0.2500339341860877  0.4998858177957575  0.0576268191404686   T   T   T
  0.0833975833535639  0.6666371600285544  0.1766893225462998   T   T   T
  0.4167549318958442  0.8335308743626669  0.2971312422834562   T   T   T
  0.2500564878700214  0.5003254695134327  0.4221735756226395   T   T   T
  0.4998451488912080  0.4998867092073981  0.0576270540578492   T   T   T
  0.8332361688669121  0.6666382693139534  0.1766870927486498   T   T   T
  0.6667861217207499  0.8335333794406371  0.2971294555377956   T   T   T
  0.5002801230865068  0.5003233131291392  0.4221734827855024   T   T   T
  0.4998430119027532  0.7496982639523672  0.0566912172005757   T   T   T
  0.8333753847933024  0.9166473056774567  0.1764938467418316   T   T   T
  0.6664571906191749  0.5833708102317197  0.2980732071291920   T   T   T
  0.5001897524969995  0.7503665648273761  0.4196844072594775   T   T   T
  0.7498764307628782  0.7497814163844279  0.0551063657262422   T   T   T
  0.5834618002833504  0.9169314734676336  0.1773162185228067   T   T   T
  0.9166469695810212  0.5832846368159610  0.2965504722006630   T   T   T
  0.7501833769660821  0.7501840031627084  0.4191608282276496   T   T   T
  0.7498738512709611  0.5000269061559355  0.0551048472284399   T   T   T
  0.5832609415486188  0.6666635007770295  0.1785427081354886   T   T   T
  0.9166517878409711  0.8336590588891694  0.2965478717504448   T   T   T
  0.7501730011385539  0.5003879422938015  0.4191164335270744   T   T   T
 
  0.00000000E+00  0.00000000E+00  0.00000000E+00
  0.00000000E+00  0.00000000E+00  0.00000000E+00
  0.00000000E+00  0.00000000E+00  0.00000000E+00
  0.00000000E+00  0.00000000E+00  0.00000000E+00
  0.00000000E+00  0.00000000E+00  0.00000000E+00
  0.00000000E+00  0.00000000E+00  0.00000000E+00
  0.00000000E+00  0.00000000E+00  0.00000000E+00
  0.00000000E+00  0.00000000E+00  0.00000000E+00
  0.00000000E+00  0.00000000E+00  0.00000000E+00
  0.00000000E+00  0.00000000E+00  0.00000000E+00
  0.00000000E+00  0.00000000E+00  0.00000000E+00
  0.00000000E+00  0.00000000E+00  0.00000000E+00
  0.00000000E+00  0.00000000E+00  0.00000000E+00
  0.00000000E+00  0.00000000E+00  0.00000000E+00
  0.00000000E+00  0.00000000E+00  0.00000000E+00
  0.00000000E+00  0.00000000E+00  0.00000000E+00
  0.00000000E+00  0.00000000E+00  0.00000000E+00
  0.00000000E+00  0.00000000E+00  0.00000000E+00
  0.00000000E+00  0.00000000E+00  0.00000000E+00
  0.00000000E+00  0.00000000E+00  0.00000000E+00
  0.00000000E+00  0.00000000E+00  0.00000000E+00
  0.00000000E+00  0.00000000E+00  0.00000000E+00
  0.00000000E+00  0.00000000E+00  0.00000000E+00
  0.00000000E+00  0.00000000E+00  0.00000000E+00
  0.00000000E+00  0.00000000E+00  0.00000000E+00
  0.00000000E+00  0.00000000E+00  0.00000000E+00
  0.00000000E+00  0.00000000E+00  0.00000000E+00
  0.00000000E+00  0.00000000E+00  0.00000000E+00
  0.00000000E+00  0.00000000E+00  0.00000000E+00
  0.00000000E+00  0.00000000E+00  0.00000000E+00
  0.00000000E+00  0.00000000E+00  0.00000000E+00
  0.00000000E+00  0.00000000E+00  0.00000000E+00
  0.00000000E+00  0.00000000E+00  0.00000000E+00
  0.00000000E+00  0.00000000E+00  0.00000000E+00
  0.00000000E+00  0.00000000E+00  0.00000000E+00
  0.00000000E+00  0.00000000E+00  0.00000000E+00
  0.00000000E+00  0.00000000E+00  0.00000000E+00
  0.00000000E+00  0.00000000E+00  0.00000000E+00
  0.00000000E+00  0.00000000E+00  0.00000000E+00
  0.00000000E+00  0.00000000E+00  0.00000000E+00
  0.00000000E+00  0.00000000E+00  0.00000000E+00
  0.00000000E+00  0.00000000E+00  0.00000000E+00
  0.00000000E+00  0.00000000E+00  0.00000000E+00
  0.00000000E+00  0.00000000E+00  0.00000000E+00
  0.00000000E+00  0.00000000E+00  0.00000000E+00
  0.00000000E+00  0.00000000E+00  0.00000000E+00
  0.00000000E+00  0.00000000E+00  0.00000000E+00
  0.00000000E+00  0.00000000E+00  0.00000000E+00
  0.00000000E+00  0.00000000E+00  0.00000000E+00
  0.00000000E+00  0.00000000E+00  0.00000000E+00
  0.00000000E+00  0.00000000E+00  0.00000000E+00
  0.00000000E+00  0.00000000E+00  0.00000000E+00
  0.00000000E+00  0.00000000E+00  0.00000000E+00
  0.00000000E+00  0.00000000E+00  0.00000000E+00
  0.00000000E+00  0.00000000E+00  0.00000000E+00
  0.00000000E+00  0.00000000E+00  0.00000000E+00
  0.00000000E+00  0.00000000E+00  0.00000000E+00
  0.00000000E+00  0.00000000E+00  0.00000000E+00
  0.00000000E+00  0.00000000E+00  0.00000000E+00
  0.00000000E+00  0.00000000E+00  0.00000000E+00
  0.00000000E+00  0.00000000E+00  0.00000000E+00
  0.00000000E+00  0.00000000E+00  0.00000000E+00
  0.00000000E+00  0.00000000E+00  0.00000000E+00
  0.00000000E+00  0.00000000E+00  0.00000000E+00
