PtM\(2)                                 
   1.00000000000000     
    10.5600004195999997    0.0000000000000000    0.0000000000000000
     5.2800002097999998    9.1452286273999999    0.0000000000000000
     0.0000000000000000    0.0000000000000000   22.0000000000000000
   Co   Pt   H 
    64    16     1
Selective dynamics
Direct
  0.7851584982436451  0.8689095620344368  0.3113704737384059   T   T   T
  0.0345940224395315  0.8691372837082109  0.3114831252452488   T   T   T
  0.0346698323704867  0.6195007732861184  0.3116114108597627   T   T   T
  0.7867273660717160  0.8679642656956403  0.0512459387681830   F   F   F
  0.0365582889316727  0.8681155879376945  0.0512968500727240   F   F   F
  0.0366385040692379  0.6180027208140757  0.0513268320045484   F   F   F
  0.6197458139953724  0.2015653887074080  0.1359842224363632   F   F   F
  0.3696581151044427  0.9516587404413883  0.1359628183681849   F   F   F
  0.0350575791170374  0.3690090300527950  0.3114523364568106   T   T   T
  0.0365963083346230  0.3681210410982487  0.0513400607590881   F   F   F
  0.8696445805581874  0.2016593805292644  0.1359685681136398   F   F   F
  0.9519993928525711  0.5357519495889563  0.2261441579663840   T   T   T
  0.2843092816830222  0.1199333131793178  0.3113994773465645   T   T   T
  0.5344453168962195  0.6187753067693109  0.3125158762633798   T   T   T
  0.2853271856638133  0.3700627869725783  0.3118088475939606   T   T   T
  0.2866892341020844  0.1181642286735496  0.0512986875090888   F   F   F
  0.5364312247542529  0.6180888009911953  0.0512321504227273   F   F   F
  0.2865494571265899  0.3680887902806873  0.0513541229409071   F   F   F
  0.6196855222964857  0.9516086189169641  0.1359457447227257   F   F   F
  0.7019638398517707  0.7853264153860389  0.2260615996432257   T   T   T
  0.8696068445877501  0.7016434521139203  0.1359744543409107   F   F   F
  0.6196787033340101  0.4516972511571211  0.1359518773045423   F   F   F
  0.2844699066398518  0.8702376449348157  0.3115998537521727   T   T   T
  0.2864484617105987  0.8681479668001657  0.0512844256863616   F   F   F
  0.6195877735811877  0.7016649391655889  0.1359121752636341   F   F   F
  0.2022377438165004  0.0352958238556975  0.2259899712633158   T   T   T
  0.5344225753094504  0.3706474352917251  0.3126173861124875   T   T   T
  0.5366727813368897  0.3679689281050500  0.0512926962318190   F   F   F
  0.5356158416259129  0.1189912450042515  0.3114500740364283   T   T   T
  0.5366727297449145  0.1180819610856503  0.0512831161363607   F   F   F
  0.8695347579033736  0.4517599086940010  0.1360032284090877   F   F   F
  0.1196881004386654  0.4516315490708749  0.1360589541590898   F   F   F
  0.0349476873986349  0.1198798152494830  0.3113414537119387   T   T   T
  0.0367073024034212  0.1181355239455755  0.0512976033590888   F   F   F
  0.1195841194112788  0.9517098196345941  0.1359996366499985   F   F   F
  0.4521721177357172  0.5355747072403632  0.2264659857572167   T   T   T
  0.3697648022638447  0.2016092602732655  0.1360238306954571   F   F   F
  0.1197124802163927  0.2016080101678313  0.1360219540863667   F   F   F
  0.9523612865937644  0.7853321168597004  0.2260789343447044   T   T   T
  0.7848883684712151  0.6193941495217500  0.3115872232307426   T   T   T
  0.2860167287785086  0.6188666947357772  0.3124725373315443   T   T   T
  0.7866122012324155  0.6180570610520562  0.0512491053409079   F   F   F
  0.2865146433568171  0.6180287077969808  0.0513054318772745   F   F   F
  0.3695989973367162  0.7017014523150777  0.1359655195227276   F   F   F
  0.3697484436136094  0.4516451135868707  0.1360192398909064   F   F   F
  0.2024681441330553  0.2862713818431586  0.2261199472354862   T   T   T
  0.7842728574996997  0.3698803415437024  0.3117306198604505   T   T   T
  0.7867185081021617  0.3680613783361437  0.0512697199636349   F   F   F
  0.9519321023787780  0.0355615599632739  0.2261428385003435   T   T   T
  0.4522671777417938  0.7847433559237759  0.2264317575247356   T   T   T
  0.7008109226504008  0.5362084593469466  0.2263760622198854   T   T   T
  0.2026173723299820  0.7849181712340511  0.2264340059254510   T   T   T
  0.4521805546039804  0.0355124950191164  0.2261319183932216   T   T   T
  0.1196483908887416  0.7016781133140881  0.1360106184272709   F   F   F
  0.7020805011392247  0.0354888515677938  0.2260320959293962   T   T   T
  0.7844717412032108  0.1190099796648394  0.3114913034953807   T   T   T
  0.5352547861023701  0.8691895718181369  0.3114691612633140   T   T   T
  0.7867138903031332  0.1180528005352812  0.0512607778181788   F   F   F
  0.5365868230827999  0.8681333544809533  0.0512481075045486   F   F   F
  0.2025994885954188  0.5362128662525771  0.2263985473388822   T   T   T
  0.9510478318636056  0.2862924064573817  0.2260409026989708   T   T   T
  0.8695596740848686  0.9516473608789653  0.1359644263590880   F   F   F
  0.7011782203572233  0.2862678442514832  0.2264244961034848   T   T   T
  0.4524227949054113  0.2862995216197936  0.2264434441666668   T   T   T
  0.8676480306614447  0.9535836352762754  0.4090853694488499   T   T   T
  0.1170634544280134  0.4535040664241092  0.4089012835692538   T   T   T
  0.1171534561792416  0.9540399381702530  0.4087486813535358   T   T   T
  0.8685017748130909  0.4534463797557408  0.4089207253780885   T   T   T
  0.3675897680968388  0.9541253374581399  0.4088109466537000   T   T   T
  0.8684164297265548  0.2028468706372391  0.4087185085430367   T   T   T
  0.1176384774232888  0.2035663425000453  0.4089073745683259   T   T   T
  0.6173202398012818  0.9536927773148189  0.4090829357105873   T   T   T
  0.8676491011331915  0.7034342059695928  0.4092085322771793   T   T   T
  0.3675141446379004  0.2030554094472093  0.4087615643150246   T   T   T
  0.3657658055395144  0.7072463034460150  0.4114299060738233   T   T   T
  0.6217281933080875  0.4512912726354206  0.4117411789819540   T   T   T
  0.1156455706616046  0.7043683181418824  0.4088334916314358   T   T   T
  0.6186643845177635  0.2014311024991275  0.4088738801187817   T   T   T
  0.3660050379368155  0.4515985390448120  0.4115850726493882   T   T   T
  0.6188220610396475  0.7043661259782809  0.4088139734095994   T   T   T
  0.4523973005711081  0.5381058837653920  0.4571583152425919   T   T   T
 
  0.00000000E+00  0.00000000E+00  0.00000000E+00
  0.00000000E+00  0.00000000E+00  0.00000000E+00
  0.00000000E+00  0.00000000E+00  0.00000000E+00
  0.00000000E+00  0.00000000E+00  0.00000000E+00
  0.00000000E+00  0.00000000E+00  0.00000000E+00
  0.00000000E+00  0.00000000E+00  0.00000000E+00
  0.00000000E+00  0.00000000E+00  0.00000000E+00
  0.00000000E+00  0.00000000E+00  0.00000000E+00
  0.00000000E+00  0.00000000E+00  0.00000000E+00
  0.00000000E+00  0.00000000E+00  0.00000000E+00
  0.00000000E+00  0.00000000E+00  0.00000000E+00
  0.00000000E+00  0.00000000E+00  0.00000000E+00
  0.00000000E+00  0.00000000E+00  0.00000000E+00
  0.00000000E+00  0.00000000E+00  0.00000000E+00
  0.00000000E+00  0.00000000E+00  0.00000000E+00
  0.00000000E+00  0.00000000E+00  0.00000000E+00
  0.00000000E+00  0.00000000E+00  0.00000000E+00
  0.00000000E+00  0.00000000E+00  0.00000000E+00
  0.00000000E+00  0.00000000E+00  0.00000000E+00
  0.00000000E+00  0.00000000E+00  0.00000000E+00
  0.00000000E+00  0.00000000E+00  0.00000000E+00
  0.00000000E+00  0.00000000E+00  0.00000000E+00
  0.00000000E+00  0.00000000E+00  0.00000000E+00
  0.00000000E+00  0.00000000E+00  0.00000000E+00
  0.00000000E+00  0.00000000E+00  0.00000000E+00
  0.00000000E+00  0.00000000E+00  0.00000000E+00
  0.00000000E+00  0.00000000E+00  0.00000000E+00
  0.00000000E+00  0.00000000E+00  0.00000000E+00
  0.00000000E+00  0.00000000E+00  0.00000000E+00
  0.00000000E+00  0.00000000E+00  0.00000000E+00
  0.00000000E+00  0.00000000E+00  0.00000000E+00
  0.00000000E+00  0.00000000E+00  0.00000000E+00
  0.00000000E+00  0.00000000E+00  0.00000000E+00
  0.00000000E+00  0.00000000E+00  0.00000000E+00
  0.00000000E+00  0.00000000E+00  0.00000000E+00
  0.00000000E+00  0.00000000E+00  0.00000000E+00
  0.00000000E+00  0.00000000E+00  0.00000000E+00
  0.00000000E+00  0.00000000E+00  0.00000000E+00
  0.00000000E+00  0.00000000E+00  0.00000000E+00
  0.00000000E+00  0.00000000E+00  0.00000000E+00
  0.00000000E+00  0.00000000E+00  0.00000000E+00
  0.00000000E+00  0.00000000E+00  0.00000000E+00
  0.00000000E+00  0.00000000E+00  0.00000000E+00
  0.00000000E+00  0.00000000E+00  0.00000000E+00
  0.00000000E+00  0.00000000E+00  0.00000000E+00
  0.00000000E+00  0.00000000E+00  0.00000000E+00
  0.00000000E+00  0.00000000E+00  0.00000000E+00
  0.00000000E+00  0.00000000E+00  0.00000000E+00
  0.00000000E+00  0.00000000E+00  0.00000000E+00
  0.00000000E+00  0.00000000E+00  0.00000000E+00
  0.00000000E+00  0.00000000E+00  0.00000000E+00
  0.00000000E+00  0.00000000E+00  0.00000000E+00
  0.00000000E+00  0.00000000E+00  0.00000000E+00
  0.00000000E+00  0.00000000E+00  0.00000000E+00
  0.00000000E+00  0.00000000E+00  0.00000000E+00
  0.00000000E+00  0.00000000E+00  0.00000000E+00
  0.00000000E+00  0.00000000E+00  0.00000000E+00
  0.00000000E+00  0.00000000E+00  0.00000000E+00
  0.00000000E+00  0.00000000E+00  0.00000000E+00
  0.00000000E+00  0.00000000E+00  0.00000000E+00
  0.00000000E+00  0.00000000E+00  0.00000000E+00
  0.00000000E+00  0.00000000E+00  0.00000000E+00
  0.00000000E+00  0.00000000E+00  0.00000000E+00
  0.00000000E+00  0.00000000E+00  0.00000000E+00
  0.00000000E+00  0.00000000E+00  0.00000000E+00
  0.00000000E+00  0.00000000E+00  0.00000000E+00
  0.00000000E+00  0.00000000E+00  0.00000000E+00
  0.00000000E+00  0.00000000E+00  0.00000000E+00
  0.00000000E+00  0.00000000E+00  0.00000000E+00
  0.00000000E+00  0.00000000E+00  0.00000000E+00
  0.00000000E+00  0.00000000E+00  0.00000000E+00
  0.00000000E+00  0.00000000E+00  0.00000000E+00
  0.00000000E+00  0.00000000E+00  0.00000000E+00
  0.00000000E+00  0.00000000E+00  0.00000000E+00
  0.00000000E+00  0.00000000E+00  0.00000000E+00
  0.00000000E+00  0.00000000E+00  0.00000000E+00
  0.00000000E+00  0.00000000E+00  0.00000000E+00
  0.00000000E+00  0.00000000E+00  0.00000000E+00
  0.00000000E+00  0.00000000E+00  0.00000000E+00
  0.00000000E+00  0.00000000E+00  0.00000000E+00
  0.00000000E+00  0.00000000E+00  0.00000000E+00
