Fe   Pt   H                             
   1.00000000000000     
    10.5600004195999997    0.0000000000000000    0.0000000000000000
     5.2800002097999998    9.1452286273999999    0.0000000000000000
     0.0000000000000000    0.0000000000000000   22.0000000000000000
   Fe   Pt   H 
    64    16     2
Selective dynamics
Direct
  0.7898258577888351  0.8717666036068413  0.3119733472841003   T   T   T
  0.0398743307710248  0.8663777326486720  0.3179704456030260   T   T   T
  0.0421458781910327  0.6169234537464595  0.3161347801245785   T   T   T
  0.8026267767292836  0.8615467289022831  0.0454892451863671   F   F   F
  0.0404195207448552  0.8617027190320172  0.0531321522045474   F   F   F
  0.0509400554688710  0.6062387638608655  0.0434550926181814   F   F   F
  0.6179624315601515  0.2089407032181825  0.1354205681000025   F   F   F
  0.3771081362849742  0.9520552039687331  0.1315154562954532   F   F   F
  0.0427874328027979  0.3685218952747741  0.3170705522601480   T   T   T
  0.0513505762289554  0.3533140917898123  0.0488741219272697   F   F   F
  0.8796363959013576  0.1964455081765166  0.1405242804454545   F   F   F
  0.9714621866544625  0.5263588233844093  0.2239215331579718   T   T   T
  0.2811877697181893  0.1280761908170321  0.3151429112521297   T   T   T
  0.5273257465321464  0.6206731774011538  0.3086599778055961   T   T   T
  0.2895325543638294  0.3683153633587570  0.3156009579750838   T   T   T
  0.2893256628225913  0.1234214636929067  0.0441537578181794   F   F   F
  0.5276420206625545  0.6272430854941717  0.0450746674136369   F   F   F
  0.2890943956913929  0.3689426548277837  0.0479302053681820   F   F   F
  0.6230886774246684  0.9589308993681485  0.1313536480500019   F   F   F
  0.7098087722439048  0.7857416716693473  0.2189624626778183   T   T   T
  0.8871502961281266  0.6953355374350920  0.1350361609363659   F   F   F
  0.6200488592634272  0.4538069531433777  0.1336872440681844   F   F   F
  0.2755994595417235  0.8740845716826631  0.3148411275077688   T   T   T
  0.2687421993710117  0.8846374397312431  0.0464864681272701   F   F   F
  0.6288621109649597  0.6995904720010202  0.1284261861000005   F   F   F
  0.2174137160006340  0.0313545980818065  0.2256555551405834   T   T   T
  0.5377643039705960  0.3677192786144420  0.3139876566540368   T   T   T
  0.5412157973262453  0.3693050226629708  0.0442518416318194   F   F   F
  0.5356648831680593  0.1229389645325597  0.3131330380289907   T   T   T
  0.5336944517523747  0.1355867285247427  0.0439851245909111   F   F   F
  0.8832888313795024  0.4470977980309314  0.1381582713954543   F   F   F
  0.1402232285351914  0.4469540011666240  0.1355590908681847   F   F   F
  0.0404757345112669  0.1197040225628371  0.3186377535991445   T   T   T
  0.0589967396284408  0.1018350567431128  0.0575243016954516   F   F   F
  0.1342935333655149  0.9375821956829213  0.1424705955181835   F   F   F
  0.4541368109380422  0.5269199665786809  0.2214560133005841   T   T   T
  0.3693613645044209  0.2161502974433560  0.1347813253954513   F   F   F
  0.1352238459015780  0.1985163722709657  0.1393178312181789   F   F   F
  0.9700015655467644  0.7760691250377217  0.2253044252990975   T   T   T
  0.7922977910625986  0.6169430239891255  0.3094064644817522   T   T   T
  0.2841688661724193  0.6146414497645968  0.3161265658412825   T   T   T
  0.8136378082480036  0.6035846078535201  0.0458125345909082   F   F   F
  0.2827328526180111  0.6136847731378765  0.0419772135318155   F   F   F
  0.3711045115008886  0.6919720544809493  0.1297637648999981   F   F   F
  0.3650899884529792  0.4537245194798061  0.1335287959590943   F   F   F
  0.2192358813809813  0.2911116760651805  0.2236398090136551   T   T   T
  0.7939948663150810  0.3656745939476029  0.3140632090182974   T   T   T
  0.7955667169556051  0.3623786591480993  0.0525784573590897   F   F   F
  0.9647092033280908  0.0302322125288671  0.2287493050933848   T   T   T
  0.4550556837328355  0.7817863950353916  0.2169262949634381   T   T   T
  0.7078658720432917  0.5332944006014838  0.2210469553369853   T   T   T
  0.2183483098784333  0.7704669611098242  0.2257373397428147   T   T   T
  0.4526133492306088  0.0439872517857145  0.2201304455598811   T   T   T
  0.1365430804763790  0.6811498989906610  0.1363537004090887   F   F   F
  0.7042659677748327  0.0400632017063777  0.2237139539956407   T   T   T
  0.7922248390436363  0.1193710831482874  0.3156574112809095   T   T   T
  0.5235243795590377  0.8774398213149059  0.3071158824019568   T   T   T
  0.7932310882983060  0.1130335594347969  0.0506874096272725   F   F   F
  0.5386045560987753  0.8807280389435022  0.0462069311772737   F   F   F
  0.2152591247709896  0.5208875508845268  0.2224656777788590   T   T   T
  0.9672631683433385  0.2810810787419620  0.2265004657232912   T   T   T
  0.8774744330611171  0.9478040731130761  0.1404896949318157   F   F   F
  0.7046138596642137  0.2859399556486094  0.2240009657488564   T   T   T
  0.4507538844734130  0.2886594064832181  0.2203217196280740   T   T   T
  0.8700128113790434  0.9525890170849798  0.4127724484615590   T   T   T
  0.1212133442426943  0.4528686255066260  0.4143459653846453   T   T   T
  0.1205818968799985  0.9528781697797973  0.4155692274212338   T   T   T
  0.8703277928210705  0.4540202567358878  0.4109713477977420   T   T   T
  0.3705125687468525  0.9531369335996992  0.4096513517792832   T   T   T
  0.8705175632449562  0.2036917834826051  0.4140913410683884   T   T   T
  0.1210175524890778  0.2032060113444727  0.4150608419863379   T   T   T
  0.6198692730043656  0.9526717200101106  0.4070617106773586   T   T   T
  0.8703002270758741  0.7029007738899592  0.4093841432068163   T   T   T
  0.3714419363440643  0.2022456909699802  0.4126929263917585   T   T   T
  0.3705127531281199  0.7026959770728014  0.4098869701430387   T   T   T
  0.6208532446323276  0.4531336404973078  0.4085007388497704   T   T   T
  0.1205114958205994  0.7022624977859748  0.4144500632751128   T   T   T
  0.6210868181181577  0.2026904962242427  0.4109678145889293   T   T   T
  0.3718442471979361  0.4520218874942709  0.4130705608559466   T   T   T
  0.6197193659875778  0.7037144822261618  0.4033146440995082   T   T   T
  0.4016841167484920  0.6329536400304459  0.5382626264592669   T   T   T
  0.4713197652432394  0.6361869738630360  0.5369021789208496   T   T   T
 
  0.00000000E+00  0.00000000E+00  0.00000000E+00
  0.00000000E+00  0.00000000E+00  0.00000000E+00
  0.00000000E+00  0.00000000E+00  0.00000000E+00
  0.00000000E+00  0.00000000E+00  0.00000000E+00
  0.00000000E+00  0.00000000E+00  0.00000000E+00
  0.00000000E+00  0.00000000E+00  0.00000000E+00
  0.00000000E+00  0.00000000E+00  0.00000000E+00
  0.00000000E+00  0.00000000E+00  0.00000000E+00
  0.00000000E+00  0.00000000E+00  0.00000000E+00
  0.00000000E+00  0.00000000E+00  0.00000000E+00
  0.00000000E+00  0.00000000E+00  0.00000000E+00
  0.00000000E+00  0.00000000E+00  0.00000000E+00
  0.00000000E+00  0.00000000E+00  0.00000000E+00
  0.00000000E+00  0.00000000E+00  0.00000000E+00
  0.00000000E+00  0.00000000E+00  0.00000000E+00
  0.00000000E+00  0.00000000E+00  0.00000000E+00
  0.00000000E+00  0.00000000E+00  0.00000000E+00
  0.00000000E+00  0.00000000E+00  0.00000000E+00
  0.00000000E+00  0.00000000E+00  0.00000000E+00
  0.00000000E+00  0.00000000E+00  0.00000000E+00
  0.00000000E+00  0.00000000E+00  0.00000000E+00
  0.00000000E+00  0.00000000E+00  0.00000000E+00
  0.00000000E+00  0.00000000E+00  0.00000000E+00
  0.00000000E+00  0.00000000E+00  0.00000000E+00
  0.00000000E+00  0.00000000E+00  0.00000000E+00
  0.00000000E+00  0.00000000E+00  0.00000000E+00
  0.00000000E+00  0.00000000E+00  0.00000000E+00
  0.00000000E+00  0.00000000E+00  0.00000000E+00
  0.00000000E+00  0.00000000E+00  0.00000000E+00
  0.00000000E+00  0.00000000E+00  0.00000000E+00
  0.00000000E+00  0.00000000E+00  0.00000000E+00
  0.00000000E+00  0.00000000E+00  0.00000000E+00
  0.00000000E+00  0.00000000E+00  0.00000000E+00
  0.00000000E+00  0.00000000E+00  0.00000000E+00
  0.00000000E+00  0.00000000E+00  0.00000000E+00
  0.00000000E+00  0.00000000E+00  0.00000000E+00
  0.00000000E+00  0.00000000E+00  0.00000000E+00
  0.00000000E+00  0.00000000E+00  0.00000000E+00
  0.00000000E+00  0.00000000E+00  0.00000000E+00
  0.00000000E+00  0.00000000E+00  0.00000000E+00
  0.00000000E+00  0.00000000E+00  0.00000000E+00
  0.00000000E+00  0.00000000E+00  0.00000000E+00
  0.00000000E+00  0.00000000E+00  0.00000000E+00
  0.00000000E+00  0.00000000E+00  0.00000000E+00
  0.00000000E+00  0.00000000E+00  0.00000000E+00
  0.00000000E+00  0.00000000E+00  0.00000000E+00
  0.00000000E+00  0.00000000E+00  0.00000000E+00
  0.00000000E+00  0.00000000E+00  0.00000000E+00
  0.00000000E+00  0.00000000E+00  0.00000000E+00
  0.00000000E+00  0.00000000E+00  0.00000000E+00
  0.00000000E+00  0.00000000E+00  0.00000000E+00
  0.00000000E+00  0.00000000E+00  0.00000000E+00
  0.00000000E+00  0.00000000E+00  0.00000000E+00
  0.00000000E+00  0.00000000E+00  0.00000000E+00
  0.00000000E+00  0.00000000E+00  0.00000000E+00
  0.00000000E+00  0.00000000E+00  0.00000000E+00
  0.00000000E+00  0.00000000E+00  0.00000000E+00
  0.00000000E+00  0.00000000E+00  0.00000000E+00
  0.00000000E+00  0.00000000E+00  0.00000000E+00
  0.00000000E+00  0.00000000E+00  0.00000000E+00
  0.00000000E+00  0.00000000E+00  0.00000000E+00
  0.00000000E+00  0.00000000E+00  0.00000000E+00
  0.00000000E+00  0.00000000E+00  0.00000000E+00
  0.00000000E+00  0.00000000E+00  0.00000000E+00
  0.00000000E+00  0.00000000E+00  0.00000000E+00
  0.00000000E+00  0.00000000E+00  0.00000000E+00
  0.00000000E+00  0.00000000E+00  0.00000000E+00
  0.00000000E+00  0.00000000E+00  0.00000000E+00
  0.00000000E+00  0.00000000E+00  0.00000000E+00
  0.00000000E+00  0.00000000E+00  0.00000000E+00
  0.00000000E+00  0.00000000E+00  0.00000000E+00
  0.00000000E+00  0.00000000E+00  0.00000000E+00
  0.00000000E+00  0.00000000E+00  0.00000000E+00
  0.00000000E+00  0.00000000E+00  0.00000000E+00
  0.00000000E+00  0.00000000E+00  0.00000000E+00
  0.00000000E+00  0.00000000E+00  0.00000000E+00
  0.00000000E+00  0.00000000E+00  0.00000000E+00
  0.00000000E+00  0.00000000E+00  0.00000000E+00
  0.00000000E+00  0.00000000E+00  0.00000000E+00
  0.00000000E+00  0.00000000E+00  0.00000000E+00
  0.00000000E+00  0.00000000E+00  0.00000000E+00
  0.00000000E+00  0.00000000E+00  0.00000000E+00
