Pt   H                                  
   1.00000000000000     
    10.5600004195999997    0.0000000000000000    0.0000000000000000
    -5.2800002097999998    9.1452286273999999    0.0000000000000000
     0.0000000000000000    0.0000000000000000   20.0000000000000000
   Pt   H 
    64     2
Selective dynamics
Direct
  0.9999984446215961  0.0000015553793773  0.0557922949150012   F   F   F
  0.3333514568845057  0.1672558585163451  0.1783702054359239   T   T   T
  0.1670143582651145  0.3335856938441030  0.3023405907941404   T   T   T
  0.9998791416808942  1.0002462498221383  0.4181897589636267   T   T   T
  0.9999984416169312  0.2500015483757210  0.0557922949150012   F   F   F
  0.3332377913946126  0.4165173041347472  0.1814636098799840   T   T   T
  0.1672573041417406  0.0843404485117962  0.2985488430590869   T   T   T
  0.9997344499705252  0.2502666063087777  0.4212879006956446   T   T   T
  0.2499984416169312  0.2500015483757210  0.0557922949150012   F   F   F
  0.0839828931177154  0.4161991596867489  0.1784066975504313   T   T   T
  0.4167418011387833  0.0834894641897214  0.2967651566300075   T   T   T
  0.2495693682272287  0.2500214522687559  0.4238295951697943   T   T   T
  0.2499984446215961  0.0000015553793773  0.0557922949150012   F   F   F
  0.0839948596324227  0.1672877284586193  0.1789751766842803   T   T   T
  0.4163875098578315  0.3335441251366627  0.3010765096970397   T   T   T
  0.2499978282936142  1.0001960409159569  0.4185545333319443   T   T   T
  0.4999984446215961  0.0000015553793773  0.0557922949150012   F   F   F
  0.8336447398033159  0.1665396767273478  0.1774642767994094   T   T   T
  0.6664820829904209  0.3332471228364228  0.2965713465377366   T   T   T
  0.5000358951232394  1.0002613236193338  0.4181223264233865   T   T   T
  0.4999984296188273  0.2500015483757210  0.0557922949150012   F   F   F
  0.8331254684997791  0.4161070193562383  0.1762587361626625   T   T   T
  0.6668020325993023  0.0832764924513849  0.2969286722612435   T   T   T
  0.5001882198559023  0.2501387872938828  0.4190897050719030   T   T   T
  0.7499984076207227  0.2500015483757210  0.0557922949150012   F   F   F
  0.5825678837904439  0.4164617911047627  0.1781359722603289   T   T   T
  0.9168561125192348  0.0837401581220357  0.2976791869787569   T   T   T
  0.7500778026844782  0.2502947170249940  0.4180611533727671   T   T   T
  0.7499984216197078  0.0000015553793773  0.0557922949150012   F   F   F
  0.5831977910698691  0.1666269606655816  0.1769934894455703   T   T   T
  0.9169606690093605  0.3329134471395238  0.2968971187712540   T   T   T
  0.7500108258122835  0.0003461838320877  0.4194184516604756   T   T   T
  0.9999984376190483  0.5000015423780582  0.0557922949150012   F   F   F
  0.3336222570803484  0.6658824738456198  0.1783712549210573   T   T   T
  0.1671427743869708  0.8337025608129269  0.2943647222745014   T   T   T
  0.0000746892996643  0.5003424628738694  0.4167187512336289   T   T   T
  0.9999984326223199  0.7500015093827130  0.0557922949150012   F   F   F
  0.3337349741578090  0.9167592439978429  0.1763708895510665   T   T   T
  0.1672484014010326  0.5828229364520200  0.2969952205270870   T   T   T
  0.0000113853366048  0.7503544878547298  0.4143950871713831   T   T   T
  0.2499984326223199  0.7500015093827130  0.0557922949150012   F   F   F
  0.0836748929954255  0.9174115435684719  0.1761355194848345   T   T   T
  0.4164446417257518  0.5831530523660341  0.3019431413391550   T   T   T
  0.2500028849554967  0.7502808487478564  0.4168325281975733   T   T   T
  0.2499984376190483  0.5000015423780582  0.0557922949150012   F   F   F
  0.0836409749243851  0.6662556021506250  0.1753912474652673   T   T   T
  0.4171354194183884  0.8331642330100003  0.2969507820093105   T   T   T
  0.2496745680397146  0.5006854962598289  0.4243580808893096   T   T   T
  0.4999984376190483  0.5000015423780582  0.0557922949150012   F   F   F
  0.8325346942471418  0.6662418280551876  0.1760191254030078   T   T   T
  0.6663690773766975  0.8332494067945534  0.2976303156959498   T   T   T
  0.5003076388683345  0.5007965782198899  0.4229400934997464   T   T   T
  0.4999984326223199  0.7500015093827130  0.0557922949150012   F   F   F
  0.8331513652924409  0.9167582802284764  0.1767725642466850   T   T   T
  0.6657779042111859  0.5828658254536204  0.2980497324331199   T   T   T
  0.5000821904204661  0.7506304945450527  0.4211180494186816   T   T   T
  0.7499984106242152  0.7500015093827130  0.0557922949150012   F   F   F
  0.5833152821320284  0.9162374925804113  0.1775067851660978   T   T   T
  0.9164067034203197  0.5829158870098055  0.2942542516454038   T   T   T
  0.7501303741286072  0.7504737252074776  0.4180979785632138   T   T   T
  0.7499983926190481  0.5000015423780582  0.0557922949150012   F   F   F
  0.5825698899236342  0.6659038376211170  0.1787152059657918   T   T   T
  0.9163817395029020  0.8337593147662480  0.2948309384230998   T   T   T
  0.7501509599906037  0.5003379104700640  0.4181254947543282   T   T   T
  0.3570365299828345  0.3985565758469736  0.5435127286907752   T   T   T
  0.3932884476141499  0.3520120252282120  0.5453541263939512   T   T   T
 
  0.00000000E+00  0.00000000E+00  0.00000000E+00
  0.00000000E+00  0.00000000E+00  0.00000000E+00
  0.00000000E+00  0.00000000E+00  0.00000000E+00
  0.00000000E+00  0.00000000E+00  0.00000000E+00
  0.00000000E+00  0.00000000E+00  0.00000000E+00
  0.00000000E+00  0.00000000E+00  0.00000000E+00
  0.00000000E+00  0.00000000E+00  0.00000000E+00
  0.00000000E+00  0.00000000E+00  0.00000000E+00
  0.00000000E+00  0.00000000E+00  0.00000000E+00
  0.00000000E+00  0.00000000E+00  0.00000000E+00
  0.00000000E+00  0.00000000E+00  0.00000000E+00
  0.00000000E+00  0.00000000E+00  0.00000000E+00
  0.00000000E+00  0.00000000E+00  0.00000000E+00
  0.00000000E+00  0.00000000E+00  0.00000000E+00
  0.00000000E+00  0.00000000E+00  0.00000000E+00
  0.00000000E+00  0.00000000E+00  0.00000000E+00
  0.00000000E+00  0.00000000E+00  0.00000000E+00
  0.00000000E+00  0.00000000E+00  0.00000000E+00
  0.00000000E+00  0.00000000E+00  0.00000000E+00
  0.00000000E+00  0.00000000E+00  0.00000000E+00
  0.00000000E+00  0.00000000E+00  0.00000000E+00
  0.00000000E+00  0.00000000E+00  0.00000000E+00
  0.00000000E+00  0.00000000E+00  0.00000000E+00
  0.00000000E+00  0.00000000E+00  0.00000000E+00
  0.00000000E+00  0.00000000E+00  0.00000000E+00
  0.00000000E+00  0.00000000E+00  0.00000000E+00
  0.00000000E+00  0.00000000E+00  0.00000000E+00
  0.00000000E+00  0.00000000E+00  0.00000000E+00
  0.00000000E+00  0.00000000E+00  0.00000000E+00
  0.00000000E+00  0.00000000E+00  0.00000000E+00
  0.00000000E+00  0.00000000E+00  0.00000000E+00
  0.00000000E+00  0.00000000E+00  0.00000000E+00
  0.00000000E+00  0.00000000E+00  0.00000000E+00
  0.00000000E+00  0.00000000E+00  0.00000000E+00
  0.00000000E+00  0.00000000E+00  0.00000000E+00
  0.00000000E+00  0.00000000E+00  0.00000000E+00
  0.00000000E+00  0.00000000E+00  0.00000000E+00
  0.00000000E+00  0.00000000E+00  0.00000000E+00
  0.00000000E+00  0.00000000E+00  0.00000000E+00
  0.00000000E+00  0.00000000E+00  0.00000000E+00
  0.00000000E+00  0.00000000E+00  0.00000000E+00
  0.00000000E+00  0.00000000E+00  0.00000000E+00
  0.00000000E+00  0.00000000E+00  0.00000000E+00
  0.00000000E+00  0.00000000E+00  0.00000000E+00
  0.00000000E+00  0.00000000E+00  0.00000000E+00
  0.00000000E+00  0.00000000E+00  0.00000000E+00
  0.00000000E+00  0.00000000E+00  0.00000000E+00
  0.00000000E+00  0.00000000E+00  0.00000000E+00
  0.00000000E+00  0.00000000E+00  0.00000000E+00
  0.00000000E+00  0.00000000E+00  0.00000000E+00
  0.00000000E+00  0.00000000E+00  0.00000000E+00
  0.00000000E+00  0.00000000E+00  0.00000000E+00
  0.00000000E+00  0.00000000E+00  0.00000000E+00
  0.00000000E+00  0.00000000E+00  0.00000000E+00
  0.00000000E+00  0.00000000E+00  0.00000000E+00
  0.00000000E+00  0.00000000E+00  0.00000000E+00
  0.00000000E+00  0.00000000E+00  0.00000000E+00
  0.00000000E+00  0.00000000E+00  0.00000000E+00
  0.00000000E+00  0.00000000E+00  0.00000000E+00
  0.00000000E+00  0.00000000E+00  0.00000000E+00
  0.00000000E+00  0.00000000E+00  0.00000000E+00
  0.00000000E+00  0.00000000E+00  0.00000000E+00
  0.00000000E+00  0.00000000E+00  0.00000000E+00
  0.00000000E+00  0.00000000E+00  0.00000000E+00
  0.00000000E+00  0.00000000E+00  0.00000000E+00
  0.00000000E+00  0.00000000E+00  0.00000000E+00
