10.56                                   
   1.00000000000000     
    10.5600004195999997    0.0000000000000000    0.0000000000000000
     5.2800002097999998    9.1452286273999999    0.0000000000000000
     0.0000000000000000    0.0000000000000000   22.0000000000000000
   Pt   Cu   Ni   Fe   Co
    32    13    10    13    12
Direct
  0.7893975010387615  0.8772946926547797  0.3159982188169642
  0.0439022310645752  0.8820745345180456  0.3162378462546261
  0.2864762090909194  0.3786595309342760  0.3201952335529584
  0.8748416252612053  0.9599665209615291  0.4238836751972054
  0.1240693817551901  0.4602415924617778  0.4273416916214224
  0.1258741172436877  0.9613314234340982  0.4226023202970918
  0.8750800494450199  0.4602049482841841  0.4227764405581031
  0.3747440694099832  0.9601181538495700  0.4194404244518543
  0.8740979426885087  0.2120197307838092  0.4217934077198675
  0.1251248694751948  0.2104865814989786  0.4235729013499729
  0.6229001983491550  0.9606385835580211  0.4243886037224238
  0.8751682960328919  0.7092262667669962  0.4253322370780780
  0.3733055629747543  0.2107147329548954  0.4276812713398851
  0.3749727209602483  0.7116109788127833  0.4263966541349561
  0.6252306777272879  0.4616506758242760  0.4238723470790467
  0.1244595865961590  0.7108388462546592  0.4255184769934636
  0.6249471005766147  0.2101877498305802  0.4246185362056881
  0.5539548792441275  0.3711869247847175  0.3175643780160556
  0.5369815072569941  0.1222516909057035  0.3149316636912796
  0.5474557691090802  0.1224145471138196  0.0383540260062955
  0.1236064448282060  0.4619868652185141  0.1274066645300259
  0.0404526804747920  0.1347668097957298  0.3135835250970792
  0.0323512895581460  0.1348251109171432  0.0344153389130918
  0.1267130615770535  0.9548495891320127  0.1316270847987639
  0.3740793818552472  0.4617390117372196  0.4267706409659628
  0.4577929944500966  0.5456247416989326  0.2200856014139467
  0.6227008884255777  0.7118995140917255  0.4243237922368837
  0.9641386328510346  0.7927262172546391  0.2176139731668379
  0.7887638414677580  0.6239782060838461  0.3189074245574750
  0.2927877478493867  0.6320818951155049  0.3191618074964197
  0.2112359165516249  0.2837402313398163  0.2226962608625118
  0.7170982237549284  0.5368531721342765  0.2205881042558158
  0.0403457462695549  0.6250876204576743  0.3211868634928350
  0.7972000438312868  0.8697589236863787  0.0374023497137933
  0.0440625835039057  0.8722191461784418  0.0345072269896045
  0.0392610792284663  0.6311846045137055  0.0351220357094751
  0.6257475188796259  0.2142350187554403  0.1326781676280183
  0.3760834871860615  0.9610439443131386  0.1305574189670471
  0.0397191053111873  0.3798920820932383  0.3208597735047103
  0.0396170568837048  0.3768031419721800  0.0334889225727016
  0.8676193552398352  0.2152196349372371  0.1309720674109413
  0.9596267895235921  0.5454269423379298  0.2247318812711963
  0.2916241295528333  0.1209325357084605  0.3200703757828843
  0.5396496547257270  0.6317611968824586  0.3213749228401409
  0.2917831490243664  0.1260602338644163  0.0372542039989519
  0.5454515139321361  0.6259782464127464  0.0420624231120366
  0.3067879116360116  0.3735680389988898  0.0391298778458921
  0.6278828336895192  0.9518576864808356  0.1326303949409639
  0.7014205873445598  0.7982020760159895  0.2228083038703315
  0.8663351732971782  0.7104737684772914  0.1283473372268140
  0.6246753788186984  0.4577386687636547  0.1281447755059879
  0.3003330248587565  0.8766311595020450  0.3162865837889287
  0.3061509070617540  0.8669645173493538  0.0394945869461664
  0.6189298912333449  0.7160352078510839  0.1315782563723618
  0.2158013217255450  0.0346202722449463  0.2239695528944042
  0.5413003481128977  0.3854934694309065  0.0392421232915758
  0.3793596896682987  0.2077414937582760  0.1304859276168806
  0.1397005988907804  0.7004273062373308  0.1260118729204822
  0.7032928047123376  0.0430698299304894  0.2223786639506010
  0.7943449028441938  0.1267551768510121  0.3230528882657865
  0.5381492914879283  0.8742407545016945  0.3182709877968499
  0.7886637734780287  0.1316311679175056  0.0356870601574306
  0.5500230713501340  0.8647745424177951  0.0409676415137419
  0.2133428810492158  0.5401467028545207  0.2246093103842511
  0.9628013650040066  0.2896499814486923  0.2215883351273279
  0.8674074857860454  0.9664102647921677  0.1274066662953088
  0.7175321873642265  0.2868729996948310  0.2245318191637675
  0.4591571903835013  0.2930458401419735  0.2237691903663585
  0.8738730802808004  0.4568980253537477  0.1267729113337304
  0.1172650635056898  0.2104917527404406  0.1300894581731756
  0.7847808401065186  0.6256565767328400  0.0430916531078058
  0.3044675991734122  0.6228429328455443  0.0413873785498329
  0.3774641631786360  0.7058247950704384  0.1277445443419119
  0.3790290951982089  0.4600384977561985  0.1289947120399805
  0.7957335926319402  0.3703583896436751  0.3183228949774570
  0.7878239818777326  0.3875206431029125  0.0411156729830431
  0.9438556562086846  0.0510421196653738  0.2234485127012790
  0.4570233967925752  0.8026344196826601  0.2250269443527681
  0.2162964734643126  0.7953313450363753  0.2247401188040758
  0.4610885657480721  0.0339352508882111  0.2216139020163958
 
  0.00000000E+00  0.00000000E+00  0.00000000E+00
  0.00000000E+00  0.00000000E+00  0.00000000E+00
  0.00000000E+00  0.00000000E+00  0.00000000E+00
  0.00000000E+00  0.00000000E+00  0.00000000E+00
  0.00000000E+00  0.00000000E+00  0.00000000E+00
  0.00000000E+00  0.00000000E+00  0.00000000E+00
  0.00000000E+00  0.00000000E+00  0.00000000E+00
  0.00000000E+00  0.00000000E+00  0.00000000E+00
  0.00000000E+00  0.00000000E+00  0.00000000E+00
  0.00000000E+00  0.00000000E+00  0.00000000E+00
  0.00000000E+00  0.00000000E+00  0.00000000E+00
  0.00000000E+00  0.00000000E+00  0.00000000E+00
  0.00000000E+00  0.00000000E+00  0.00000000E+00
  0.00000000E+00  0.00000000E+00  0.00000000E+00
  0.00000000E+00  0.00000000E+00  0.00000000E+00
  0.00000000E+00  0.00000000E+00  0.00000000E+00
  0.00000000E+00  0.00000000E+00  0.00000000E+00
  0.00000000E+00  0.00000000E+00  0.00000000E+00
  0.00000000E+00  0.00000000E+00  0.00000000E+00
  0.00000000E+00  0.00000000E+00  0.00000000E+00
  0.00000000E+00  0.00000000E+00  0.00000000E+00
  0.00000000E+00  0.00000000E+00  0.00000000E+00
  0.00000000E+00  0.00000000E+00  0.00000000E+00
  0.00000000E+00  0.00000000E+00  0.00000000E+00
  0.00000000E+00  0.00000000E+00  0.00000000E+00
  0.00000000E+00  0.00000000E+00  0.00000000E+00
  0.00000000E+00  0.00000000E+00  0.00000000E+00
  0.00000000E+00  0.00000000E+00  0.00000000E+00
  0.00000000E+00  0.00000000E+00  0.00000000E+00
  0.00000000E+00  0.00000000E+00  0.00000000E+00
  0.00000000E+00  0.00000000E+00  0.00000000E+00
  0.00000000E+00  0.00000000E+00  0.00000000E+00
  0.00000000E+00  0.00000000E+00  0.00000000E+00
  0.00000000E+00  0.00000000E+00  0.00000000E+00
  0.00000000E+00  0.00000000E+00  0.00000000E+00
  0.00000000E+00  0.00000000E+00  0.00000000E+00
  0.00000000E+00  0.00000000E+00  0.00000000E+00
  0.00000000E+00  0.00000000E+00  0.00000000E+00
  0.00000000E+00  0.00000000E+00  0.00000000E+00
  0.00000000E+00  0.00000000E+00  0.00000000E+00
  0.00000000E+00  0.00000000E+00  0.00000000E+00
  0.00000000E+00  0.00000000E+00  0.00000000E+00
  0.00000000E+00  0.00000000E+00  0.00000000E+00
  0.00000000E+00  0.00000000E+00  0.00000000E+00
  0.00000000E+00  0.00000000E+00  0.00000000E+00
  0.00000000E+00  0.00000000E+00  0.00000000E+00
  0.00000000E+00  0.00000000E+00  0.00000000E+00
  0.00000000E+00  0.00000000E+00  0.00000000E+00
  0.00000000E+00  0.00000000E+00  0.00000000E+00
  0.00000000E+00  0.00000000E+00  0.00000000E+00
  0.00000000E+00  0.00000000E+00  0.00000000E+00
  0.00000000E+00  0.00000000E+00  0.00000000E+00
  0.00000000E+00  0.00000000E+00  0.00000000E+00
  0.00000000E+00  0.00000000E+00  0.00000000E+00
  0.00000000E+00  0.00000000E+00  0.00000000E+00
  0.00000000E+00  0.00000000E+00  0.00000000E+00
  0.00000000E+00  0.00000000E+00  0.00000000E+00
  0.00000000E+00  0.00000000E+00  0.00000000E+00
  0.00000000E+00  0.00000000E+00  0.00000000E+00
  0.00000000E+00  0.00000000E+00  0.00000000E+00
  0.00000000E+00  0.00000000E+00  0.00000000E+00
  0.00000000E+00  0.00000000E+00  0.00000000E+00
  0.00000000E+00  0.00000000E+00  0.00000000E+00
  0.00000000E+00  0.00000000E+00  0.00000000E+00
  0.00000000E+00  0.00000000E+00  0.00000000E+00
  0.00000000E+00  0.00000000E+00  0.00000000E+00
  0.00000000E+00  0.00000000E+00  0.00000000E+00
  0.00000000E+00  0.00000000E+00  0.00000000E+00
  0.00000000E+00  0.00000000E+00  0.00000000E+00
  0.00000000E+00  0.00000000E+00  0.00000000E+00
  0.00000000E+00  0.00000000E+00  0.00000000E+00
  0.00000000E+00  0.00000000E+00  0.00000000E+00
  0.00000000E+00  0.00000000E+00  0.00000000E+00
  0.00000000E+00  0.00000000E+00  0.00000000E+00
  0.00000000E+00  0.00000000E+00  0.00000000E+00
  0.00000000E+00  0.00000000E+00  0.00000000E+00
  0.00000000E+00  0.00000000E+00  0.00000000E+00
  0.00000000E+00  0.00000000E+00  0.00000000E+00
  0.00000000E+00  0.00000000E+00  0.00000000E+00
  0.00000000E+00  0.00000000E+00  0.00000000E+00
