Pt111                                   
   1.00000000000000     
    11.1599999990000001    0.0000000000000000    0.0000000000000000
     5.5799999999000001    9.6648433740000037    0.0000000000000000
     0.0000000000000000    0.0000000000000000   22.0000000000000000
   Pt   H 
    80     1
Selective dynamics
Direct
  0.7848633459828578  0.8691800990378991  0.3275336046262882   T   T   T
  0.0345980425564386  0.8695814661275686  0.3274721079317277   T   T   T
  0.0348933261706401  0.6193519536095499  0.3275518989035646   T   T   T
  0.7874635770555685  0.8673889342534125  0.0217817540681793   F   F   F
  0.0369039185719657  0.8681209364624749  0.0219380647000023   F   F   F
  0.0372089304241641  0.6176234070547082  0.0220437856227278   F   F   F
  0.6194850800515113  0.2017381177893895  0.1255108009136379   F   F   F
  0.3694946185975070  0.9517446250029593  0.1255303530454555   F   F   F
  0.0347174936036201  0.3695243403386347  0.3276116892592942   T   T   T
  0.0370287718674192  0.3676012948805365  0.0220738952363604   F   F   F
  0.8694533717269266  0.2019061435335345  0.1254481768045466   F   F   F
  0.9519953537449634  0.5355403388889871  0.2266109919834240   T   T   T
  0.2847612336006217  0.1197075097452233  0.3276386820368900   T   T   T
  0.5344316500259776  0.6194302869637821  0.3288880973873005   T   T   T
  0.2852845631487332  0.3699885824729448  0.3280506150930253   T   T   T
  0.2876023430905903  0.1176072581018559  0.0219911206136345   F   F   F
  0.5367960557868514  0.6176868648238880  0.0218969956454558   F   F   F
  0.2869476318717190  0.3679096809024003  0.0220519038681815   F   F   F
  0.6193062717494300  0.9517408507152041  0.1254443523590894   F   F   F
  0.7018149873083245  0.7854320918630183  0.2264762316539139   T   T   T
  0.8692425852899390  0.7017636494809452  0.1255208504909078   F   F   F
  0.6192754204004771  0.4518762582070153  0.1255288801045467   F   F   F
  0.2849904058284722  0.8690368942572175  0.3279459044611824   T   T   T
  0.2871818341067822  0.8676401971043433  0.0218936289000027   F   F   F
  0.6190283787444244  0.7018389814518713  0.1254338009545464   F   F   F
  0.2019861804744550  0.0357123620345319  0.2265998353986004   T   T   T
  0.8675445173631983  0.9534137331975261  0.4312438204893954   T   T   T
  0.1170057493880761  0.4534825482668197  0.4313340926740333   T   T   T
  0.1162470730785202  0.9545974186163513  0.4312019047303536   T   T   T
  0.8680580664075696  0.4533907835859368  0.4313636518975191   T   T   T
  0.3676559712888569  0.9545382103318240  0.4312118825762793   T   T   T
  0.8676580653652758  0.2029182711913993  0.4312895551250138   T   T   T
  0.1174970301548152  0.2034802389120257  0.4310716537658888   T   T   T
  0.6174532505589554  0.9535171621179469  0.4312329236545706   T   T   T
  0.8677405593650327  0.7028330904720054  0.4312495300874610   T   T   T
  0.3677932579373378  0.2030222138129128  0.4312966297195109   T   T   T
  0.3642103183452009  0.7096888874211115  0.4336201972471427   T   T   T
  0.6222543975202275  0.4513504639595933  0.4335957455568540   T   T   T
  0.1145422308810560  0.7050413001563763  0.4312152825876682   T   T   T
  0.6187902914318699  0.2008209504614229  0.4313475290149448   T   T   T
  0.5345794301309470  0.3699333633975486  0.3288442880774801   T   T   T
  0.5375756556533560  0.3672664199969233  0.0219042253318165   F   F   F
  0.5348838550721817  0.1194088186057281  0.3275567416244895   T   T   T
  0.5372883261843029  0.1177018121742393  0.0218628131363658   F   F   F
  0.8692491279384456  0.4519191292690650  0.1255880297318157   F   F   F
  0.1193197257906817  0.4518318627850348  0.1256672251272732   F   F   F
  0.0345262598905905  0.1196907139185590  0.3276036579293098   T   T   T
  0.0373829550564153  0.1176937196271624  0.0219013216772694   F   F   F
  0.1193614845209936  0.9519178075197630  0.1255518159227265   F   F   F
  0.3647973977201283  0.4516350002248928  0.4335436143033346   T   T   T
  0.4519634082738127  0.5356950762917803  0.2272488440301630   T   T   T
  0.6188561778133332  0.7051287974601770  0.4312194950112258   T   T   T
  0.3694565376361183  0.2019280643854131  0.1256300756818192   F   F   F
  0.1195835971385009  0.2018115596727696  0.1255983173863626   F   F   F
  0.9521508082582535  0.7855119245334536  0.2265420007152364   T   T   T
  0.7847138930340578  0.6193388011121247  0.3275489893545283   T   T   T
  0.2851589534226264  0.6194425413995913  0.3288360530958366   T   T   T
  0.7869423602712828  0.6177860298245932  0.0218795503363651   F   F   F
  0.2870662090971976  0.6176174985885510  0.0219679548363629   F   F   F
  0.3690460114198899  0.7018993896941339  0.1255658642136339   F   F   F
  0.3694378040723265  0.4518082110515138  0.1256101804636387   F   F   F
  0.2020640203613788  0.2856246040306373  0.2266621025644955   T   T   T
  0.7837396803408523  0.3699302716136895  0.3280460157063199   T   T   T
  0.7871748366228246  0.3678317328518332  0.0218155082681832   F   F   F
  0.9519355910566842  0.0358266861624182  0.2264968280674781   T   T   T
  0.4518360515455119  0.7852931554610327  0.2267774935973837   T   T   T
  0.7014451446492702  0.5356674850542701  0.2267580654108461   T   T   T
  0.2023389725229833  0.7853609631023830  0.2268193417363739   T   T   T
  0.4518247348286775  0.0357517237537480  0.2265287043997899   T   T   T
  0.1191611970388422  0.7019593053469393  0.1255986884545450   F   F   F
  0.7019229593634458  0.0356895102153036  0.2265463933330690   T   T   T
  0.7846829723234915  0.1194003237150511  0.3275436177573793   T   T   T
  0.5348826807524218  0.8695225763349341  0.3274372580918033   T   T   T
  0.7873278505172010  0.1176277620657871  0.0218150914454540   F   F   F
  0.5373771247785655  0.8677489017733535  0.0217659130545442   F   F   F
  0.2024842965988042  0.5356946049059750  0.2267944905699323   T   T   T
  0.9519875369131880  0.2856156635157909  0.2265835560038790   T   T   T
  0.8693058877188662  0.9518715660254387  0.1255099655681846   F   F   F
  0.7017001309356518  0.2859839830090775  0.2267658360094797   T   T   T
  0.4520423984175909  0.2860282899622447  0.2268238443260578   T   T   T
  0.4511733599819618  0.5389766487307108  0.4721496372878354   T   T   T
 
  0.00000000E+00  0.00000000E+00  0.00000000E+00
  0.00000000E+00  0.00000000E+00  0.00000000E+00
  0.00000000E+00  0.00000000E+00  0.00000000E+00
  0.00000000E+00  0.00000000E+00  0.00000000E+00
  0.00000000E+00  0.00000000E+00  0.00000000E+00
  0.00000000E+00  0.00000000E+00  0.00000000E+00
  0.00000000E+00  0.00000000E+00  0.00000000E+00
  0.00000000E+00  0.00000000E+00  0.00000000E+00
  0.00000000E+00  0.00000000E+00  0.00000000E+00
  0.00000000E+00  0.00000000E+00  0.00000000E+00
  0.00000000E+00  0.00000000E+00  0.00000000E+00
  0.00000000E+00  0.00000000E+00  0.00000000E+00
  0.00000000E+00  0.00000000E+00  0.00000000E+00
  0.00000000E+00  0.00000000E+00  0.00000000E+00
  0.00000000E+00  0.00000000E+00  0.00000000E+00
  0.00000000E+00  0.00000000E+00  0.00000000E+00
  0.00000000E+00  0.00000000E+00  0.00000000E+00
  0.00000000E+00  0.00000000E+00  0.00000000E+00
  0.00000000E+00  0.00000000E+00  0.00000000E+00
  0.00000000E+00  0.00000000E+00  0.00000000E+00
  0.00000000E+00  0.00000000E+00  0.00000000E+00
  0.00000000E+00  0.00000000E+00  0.00000000E+00
  0.00000000E+00  0.00000000E+00  0.00000000E+00
  0.00000000E+00  0.00000000E+00  0.00000000E+00
  0.00000000E+00  0.00000000E+00  0.00000000E+00
  0.00000000E+00  0.00000000E+00  0.00000000E+00
  0.00000000E+00  0.00000000E+00  0.00000000E+00
  0.00000000E+00  0.00000000E+00  0.00000000E+00
  0.00000000E+00  0.00000000E+00  0.00000000E+00
  0.00000000E+00  0.00000000E+00  0.00000000E+00
  0.00000000E+00  0.00000000E+00  0.00000000E+00
  0.00000000E+00  0.00000000E+00  0.00000000E+00
  0.00000000E+00  0.00000000E+00  0.00000000E+00
  0.00000000E+00  0.00000000E+00  0.00000000E+00
  0.00000000E+00  0.00000000E+00  0.00000000E+00
  0.00000000E+00  0.00000000E+00  0.00000000E+00
  0.00000000E+00  0.00000000E+00  0.00000000E+00
  0.00000000E+00  0.00000000E+00  0.00000000E+00
  0.00000000E+00  0.00000000E+00  0.00000000E+00
  0.00000000E+00  0.00000000E+00  0.00000000E+00
  0.00000000E+00  0.00000000E+00  0.00000000E+00
  0.00000000E+00  0.00000000E+00  0.00000000E+00
  0.00000000E+00  0.00000000E+00  0.00000000E+00
  0.00000000E+00  0.00000000E+00  0.00000000E+00
  0.00000000E+00  0.00000000E+00  0.00000000E+00
  0.00000000E+00  0.00000000E+00  0.00000000E+00
  0.00000000E+00  0.00000000E+00  0.00000000E+00
  0.00000000E+00  0.00000000E+00  0.00000000E+00
  0.00000000E+00  0.00000000E+00  0.00000000E+00
  0.00000000E+00  0.00000000E+00  0.00000000E+00
  0.00000000E+00  0.00000000E+00  0.00000000E+00
  0.00000000E+00  0.00000000E+00  0.00000000E+00
  0.00000000E+00  0.00000000E+00  0.00000000E+00
  0.00000000E+00  0.00000000E+00  0.00000000E+00
  0.00000000E+00  0.00000000E+00  0.00000000E+00
  0.00000000E+00  0.00000000E+00  0.00000000E+00
  0.00000000E+00  0.00000000E+00  0.00000000E+00
  0.00000000E+00  0.00000000E+00  0.00000000E+00
  0.00000000E+00  0.00000000E+00  0.00000000E+00
  0.00000000E+00  0.00000000E+00  0.00000000E+00
  0.00000000E+00  0.00000000E+00  0.00000000E+00
  0.00000000E+00  0.00000000E+00  0.00000000E+00
  0.00000000E+00  0.00000000E+00  0.00000000E+00
  0.00000000E+00  0.00000000E+00  0.00000000E+00
  0.00000000E+00  0.00000000E+00  0.00000000E+00
  0.00000000E+00  0.00000000E+00  0.00000000E+00
  0.00000000E+00  0.00000000E+00  0.00000000E+00
  0.00000000E+00  0.00000000E+00  0.00000000E+00
  0.00000000E+00  0.00000000E+00  0.00000000E+00
  0.00000000E+00  0.00000000E+00  0.00000000E+00
  0.00000000E+00  0.00000000E+00  0.00000000E+00
  0.00000000E+00  0.00000000E+00  0.00000000E+00
  0.00000000E+00  0.00000000E+00  0.00000000E+00
  0.00000000E+00  0.00000000E+00  0.00000000E+00
  0.00000000E+00  0.00000000E+00  0.00000000E+00
  0.00000000E+00  0.00000000E+00  0.00000000E+00
  0.00000000E+00  0.00000000E+00  0.00000000E+00
  0.00000000E+00  0.00000000E+00  0.00000000E+00
  0.00000000E+00  0.00000000E+00  0.00000000E+00
  0.00000000E+00  0.00000000E+00  0.00000000E+00
  0.00000000E+00  0.00000000E+00  0.00000000E+00
