PtM\(2)                                 
   1.00000000000000     
    10.5600004195999997    0.0000000000000000    0.0000000000000000
     5.2800002097999998    9.1452286273999999    0.0000000000000000
     0.0000000000000000    0.0000000000000000   22.0000000000000000
   Fe   Pt   H 
    64    16     2
Selective dynamics
Direct
  0.7945138001671452  0.8811110418560304  0.3085170085181801   F   F   F
  0.0470962497733041  0.8745281684197508  0.3186073488318186   F   F   F
  0.0555696711567322  0.6249399887036873  0.3141518323318166   F   F   F
  0.8026267767292836  0.8615467289022831  0.0454892451863671   F   F   F
  0.0404195207448552  0.8617027190320172  0.0531321522045474   F   F   F
  0.0509400554688710  0.6062387638608655  0.0434550926181814   F   F   F
  0.6179624315601515  0.2089407032181825  0.1354205681000025   F   F   F
  0.3771081362849742  0.9520552039687331  0.1315154562954532   F   F   F
  0.0450866135079693  0.3755359388731208  0.3148689728045468   F   F   F
  0.0513505762289554  0.3533140917898123  0.0488741219272697   F   F   F
  0.8796363959013576  0.1964455081765166  0.1405242804454545   F   F   F
  0.9706336721686100  0.5320567462492534  0.2236583494409103   F   F   F
  0.2871914455903735  0.1315348015462376  0.3149761580636365   F   F   F
  0.5306849631234769  0.6253575831516329  0.3135364880818159   F   F   F
  0.2960756209755857  0.3749777413246491  0.3184235984590913   F   F   F
  0.2893256628225913  0.1234214636929067  0.0441537578181794   F   F   F
  0.5276420206625545  0.6272430854941717  0.0450746674136369   F   F   F
  0.2890943956913929  0.3689426548277837  0.0479302053681820   F   F   F
  0.6230886774246684  0.9589308993681485  0.1313536480500019   F   F   F
  0.7093169986292054  0.7894085721455042  0.2180573956045464   F   F   F
  0.8871502961281266  0.6953355374350920  0.1350361609363659   F   F   F
  0.6200488592634272  0.4538069531433777  0.1336872440681844   F   F   F
  0.2859361260908528  0.8748287334588554  0.3173676526318161   F   F   F
  0.2687421993710117  0.8846374397312431  0.0464864681272701   F   F   F
  0.6288621109649597  0.6995904720010202  0.1284261861000005   F   F   F
  0.2167532770831144  0.0322435807363561  0.2267414751318171   F   F   F
  0.5439688900715964  0.3719206807700104  0.3160581341999986   F   F   F
  0.5412157973262453  0.3693050226629708  0.0442518416318194   F   F   F
  0.5346594776921023  0.1354231570864641  0.3126151383545448   F   F   F
  0.5336944517523747  0.1355867285247427  0.0439851245909111   F   F   F
  0.8832888313795024  0.4470977980309314  0.1381582713954543   F   F   F
  0.1402232285351914  0.4469540011666240  0.1355590908681847   F   F   F
  0.0441561378849187  0.1241079906192226  0.3178953190272722   F   F   F
  0.0589967396284408  0.1018350567431128  0.0575243016954516   F   F   F
  0.1342935333655149  0.9375821956829213  0.1424705955181835   F   F   F
  0.4589026408390922  0.5253613635535714  0.2233063461499967   F   F   F
  0.3693613645044209  0.2161502974433560  0.1347813253954513   F   F   F
  0.1352238459015780  0.1985163722709657  0.1393178312181789   F   F   F
  0.9669872836099103  0.7818740388815044  0.2241129577500018   F   F   F
  0.7915423262073134  0.6231731847495894  0.3070807355954557   F   F   F
  0.2966487850837609  0.6198047485239826  0.3220207676909084   F   F   F
  0.8136378082480036  0.6035846078535201  0.0458125345909082   F   F   F
  0.2827328526180111  0.6136847731378765  0.0419772135318155   F   F   F
  0.3711045115008886  0.6919720544809493  0.1297637648999981   F   F   F
  0.3650899884529792  0.4537245194798061  0.1335287959590943   F   F   F
  0.2133982250472712  0.2905245915164585  0.2231792238181782   F   F   F
  0.7926651867632017  0.3717715882917858  0.3143412454045489   F   F   F
  0.7955667169556051  0.3623786591480993  0.0525784573590897   F   F   F
  0.9604094712362539  0.0351829649765136  0.2287619197590942   F   F   F
  0.4572404828668368  0.7809528113492874  0.2178368241136397   F   F   F
  0.7071148223228505  0.5337950777604448  0.2214834816909104   F   F   F
  0.2158885507224539  0.7733807012554479  0.2280823651500015   F   F   F
  0.4542514457063547  0.0456018307897210  0.2189611951227306   F   F   F
  0.1365430804763790  0.6811498989906610  0.1363537004090887   F   F   F
  0.7062012385695908  0.0450884193605177  0.2227691624136341   F   F   F
  0.7935762132215700  0.1263689774400518  0.3158331266999994   F   F   F
  0.5302982198089410  0.8802416807253337  0.3064432639181831   F   F   F
  0.7932310882983060  0.1130335594347969  0.0506874096272725   F   F   F
  0.5386045560987753  0.8807280389435022  0.0462069311772737   F   F   F
  0.2206759349016494  0.5225196200981728  0.2259178703681783   F   F   F
  0.9644466070059607  0.2846258471440777  0.2268573424136378   F   F   F
  0.8774744330611171  0.9478040731130761  0.1404896949318157   F   F   F
  0.7086930657642370  0.2872040426338387  0.2219947489954563   F   F   F
  0.4586984321651499  0.2860935761257011  0.2226855359318165   F   F   F
  0.8736685504820016  0.9594446627513733  0.4114756896727272   F   F   F
  0.1238119335821679  0.4583471367726446  0.4122485524227244   F   F   F
  0.1229118724399143  0.9617580024022416  0.4157834478272733   F   F   F
  0.8758681391709118  0.4590478494569368  0.4083862887454544   F   F   F
  0.3742621732856648  0.9612305026319703  0.4095600628909111   F   F   F
  0.8743279697847584  0.2092503264780632  0.4129591283545437   F   F   F
  0.1243268283888739  0.2100937110356611  0.4132917203818209   F   F   F
  0.6244682345081856  0.9586397696863784  0.4040781239500006   F   F   F
  0.8746480117157347  0.7099775367284522  0.4037791330409064   F   F   F
  0.3755021306893696  0.2078697078501008  0.4128317011409095   F   F   F
  0.3729186141425203  0.7128717336018582  0.4224343812090936   F   F   F
  0.6273774016020113  0.4564724041225858  0.4128597795681799   F   F   F
  0.1206439572201532  0.7106613937379223  0.4181545546454544   F   F   F
  0.6248195507113152  0.2077204346656174  0.4116401286545468   F   F   F
  0.3762786639932827  0.4537568360693669  0.4193937903863656   F   F   F
  0.6254900466700590  0.7110604510659186  0.4053904223772733   F   F   F
  0.2871070048197595  0.6274930838040191  0.4653839889681848   T   T   T
  0.5469905548040543  0.6323399686339072  0.4589197493363663   T   T   T
 
  0.00000000E+00  0.00000000E+00  0.00000000E+00
  0.00000000E+00  0.00000000E+00  0.00000000E+00
  0.00000000E+00  0.00000000E+00  0.00000000E+00
  0.00000000E+00  0.00000000E+00  0.00000000E+00
  0.00000000E+00  0.00000000E+00  0.00000000E+00
  0.00000000E+00  0.00000000E+00  0.00000000E+00
  0.00000000E+00  0.00000000E+00  0.00000000E+00
  0.00000000E+00  0.00000000E+00  0.00000000E+00
  0.00000000E+00  0.00000000E+00  0.00000000E+00
  0.00000000E+00  0.00000000E+00  0.00000000E+00
  0.00000000E+00  0.00000000E+00  0.00000000E+00
  0.00000000E+00  0.00000000E+00  0.00000000E+00
  0.00000000E+00  0.00000000E+00  0.00000000E+00
  0.00000000E+00  0.00000000E+00  0.00000000E+00
  0.00000000E+00  0.00000000E+00  0.00000000E+00
  0.00000000E+00  0.00000000E+00  0.00000000E+00
  0.00000000E+00  0.00000000E+00  0.00000000E+00
  0.00000000E+00  0.00000000E+00  0.00000000E+00
  0.00000000E+00  0.00000000E+00  0.00000000E+00
  0.00000000E+00  0.00000000E+00  0.00000000E+00
  0.00000000E+00  0.00000000E+00  0.00000000E+00
  0.00000000E+00  0.00000000E+00  0.00000000E+00
  0.00000000E+00  0.00000000E+00  0.00000000E+00
  0.00000000E+00  0.00000000E+00  0.00000000E+00
  0.00000000E+00  0.00000000E+00  0.00000000E+00
  0.00000000E+00  0.00000000E+00  0.00000000E+00
  0.00000000E+00  0.00000000E+00  0.00000000E+00
  0.00000000E+00  0.00000000E+00  0.00000000E+00
  0.00000000E+00  0.00000000E+00  0.00000000E+00
  0.00000000E+00  0.00000000E+00  0.00000000E+00
  0.00000000E+00  0.00000000E+00  0.00000000E+00
  0.00000000E+00  0.00000000E+00  0.00000000E+00
  0.00000000E+00  0.00000000E+00  0.00000000E+00
  0.00000000E+00  0.00000000E+00  0.00000000E+00
  0.00000000E+00  0.00000000E+00  0.00000000E+00
  0.00000000E+00  0.00000000E+00  0.00000000E+00
  0.00000000E+00  0.00000000E+00  0.00000000E+00
  0.00000000E+00  0.00000000E+00  0.00000000E+00
  0.00000000E+00  0.00000000E+00  0.00000000E+00
  0.00000000E+00  0.00000000E+00  0.00000000E+00
  0.00000000E+00  0.00000000E+00  0.00000000E+00
  0.00000000E+00  0.00000000E+00  0.00000000E+00
  0.00000000E+00  0.00000000E+00  0.00000000E+00
  0.00000000E+00  0.00000000E+00  0.00000000E+00
  0.00000000E+00  0.00000000E+00  0.00000000E+00
  0.00000000E+00  0.00000000E+00  0.00000000E+00
  0.00000000E+00  0.00000000E+00  0.00000000E+00
  0.00000000E+00  0.00000000E+00  0.00000000E+00
  0.00000000E+00  0.00000000E+00  0.00000000E+00
  0.00000000E+00  0.00000000E+00  0.00000000E+00
  0.00000000E+00  0.00000000E+00  0.00000000E+00
  0.00000000E+00  0.00000000E+00  0.00000000E+00
  0.00000000E+00  0.00000000E+00  0.00000000E+00
  0.00000000E+00  0.00000000E+00  0.00000000E+00
  0.00000000E+00  0.00000000E+00  0.00000000E+00
  0.00000000E+00  0.00000000E+00  0.00000000E+00
  0.00000000E+00  0.00000000E+00  0.00000000E+00
  0.00000000E+00  0.00000000E+00  0.00000000E+00
  0.00000000E+00  0.00000000E+00  0.00000000E+00
  0.00000000E+00  0.00000000E+00  0.00000000E+00
  0.00000000E+00  0.00000000E+00  0.00000000E+00
  0.00000000E+00  0.00000000E+00  0.00000000E+00
  0.00000000E+00  0.00000000E+00  0.00000000E+00
  0.00000000E+00  0.00000000E+00  0.00000000E+00
  0.00000000E+00  0.00000000E+00  0.00000000E+00
  0.00000000E+00  0.00000000E+00  0.00000000E+00
  0.00000000E+00  0.00000000E+00  0.00000000E+00
  0.00000000E+00  0.00000000E+00  0.00000000E+00
  0.00000000E+00  0.00000000E+00  0.00000000E+00
  0.00000000E+00  0.00000000E+00  0.00000000E+00
  0.00000000E+00  0.00000000E+00  0.00000000E+00
  0.00000000E+00  0.00000000E+00  0.00000000E+00
  0.00000000E+00  0.00000000E+00  0.00000000E+00
  0.00000000E+00  0.00000000E+00  0.00000000E+00
  0.00000000E+00  0.00000000E+00  0.00000000E+00
  0.00000000E+00  0.00000000E+00  0.00000000E+00
  0.00000000E+00  0.00000000E+00  0.00000000E+00
  0.00000000E+00  0.00000000E+00  0.00000000E+00
  0.00000000E+00  0.00000000E+00  0.00000000E+00
  0.00000000E+00  0.00000000E+00  0.00000000E+00
  0.00000000E+00  0.00000000E+00  0.00000000E+00
  0.00000000E+00  0.00000000E+00  0.00000000E+00
