PtM\(2)                                 
   1.00000000000000     
    10.5600004195999997    0.0000000000000000    0.0000000000000000
     5.2800002097999998    9.1452286273999999    0.0000000000000000
     0.0000000000000000    0.0000000000000000   22.0000000000000000
   Fe   Pt   H 
    64    16     2
Selective dynamics
Direct
  0.7755424257526258  0.8724386684653425  0.3109294167454522   F   F   F
  0.0298996443213184  0.8697276664871438  0.3168755579454512   F   F   F
  0.0302827390848677  0.6184488422361056  0.3161121784999992   F   F   F
  0.8026267767292836  0.8615467289022831  0.0454892451863671   F   F   F
  0.0404195207448552  0.8617027190320172  0.0531321522045474   F   F   F
  0.0509400554688710  0.6062387638608655  0.0434550926181814   F   F   F
  0.6179624315601515  0.2089407032181825  0.1354205681000025   F   F   F
  0.3771081362849742  0.9520552039687331  0.1315154562954532   F   F   F
  0.0333561974230037  0.3703706122941384  0.3167706703045425   F   F   F
  0.0513505762289554  0.3533140917898123  0.0488741219272697   F   F   F
  0.8796363959013576  0.1964455081765166  0.1405242804454545   F   F   F
  0.9608741710657824  0.5303829516265495  0.2241775046318182   F   F   F
  0.2762688196109409  0.1277453221562723  0.3159951738545459   F   F   F
  0.5201021734368538  0.6198589727889185  0.3100364558954567   F   F   F
  0.2808031346306237  0.3712454852061171  0.3170240770909061   F   F   F
  0.2893256628225913  0.1234214636929067  0.0441537578181794   F   F   F
  0.5276420206625545  0.6272430854941717  0.0450746674136369   F   F   F
  0.2890943956913929  0.3689426548277837  0.0479302053681820   F   F   F
  0.6230886774246684  0.9589308993681485  0.1313536480500019   F   F   F
  0.7054871546881785  0.7828252042109227  0.2181867648090901   F   F   F
  0.8871502961281266  0.6953355374350920  0.1350361609363659   F   F   F
  0.6200488592634272  0.4538069531433777  0.1336872440681844   F   F   F
  0.2675341103781150  0.8754927930627687  0.3143156753818204   F   F   F
  0.2687421993710117  0.8846374397312431  0.0464864681272701   F   F   F
  0.6288621109649597  0.6995904720010202  0.1284261861000005   F   F   F
  0.2123921620697544  0.0333892558557949  0.2268176075954571   F   F   F
  0.5280022019460446  0.3701078255779251  0.3149326804954526   F   F   F
  0.5412157973262453  0.3693050226629708  0.0442518416318194   F   F   F
  0.5274104942290734  0.1259113610839648  0.3136942952136366   F   F   F
  0.5336944517523747  0.1355867285247427  0.0439851245909111   F   F   F
  0.8832888313795024  0.4470977980309314  0.1381582713954543   F   F   F
  0.1402232285351914  0.4469540011666240  0.1355590908681847   F   F   F
  0.0343283426341685  0.1270108902712295  0.3125266102545439   F   F   F
  0.0589967396284408  0.1018350567431128  0.0575243016954516   F   F   F
  0.1342935333655149  0.9375821956829213  0.1424705955181835   F   F   F
  0.4534967551770350  0.5271419748388055  0.2215538455318153   F   F   F
  0.3693613645044209  0.2161502974433560  0.1347813253954513   F   F   F
  0.1352238459015780  0.1985163722709657  0.1393178312181789   F   F   F
  0.9645185657308204  0.7789509619974666  0.2263214650954524   F   F   F
  0.7774037331611439  0.6223521496496573  0.3110803421727297   F   F   F
  0.2771578702332675  0.6163505618997860  0.3172216487772701   F   F   F
  0.8136378082480036  0.6035846078535201  0.0458125345909082   F   F   F
  0.2827328526180111  0.6136847731378765  0.0419772135318155   F   F   F
  0.3711045115008886  0.6919720544809493  0.1297637648999981   F   F   F
  0.3650899884529792  0.4537245194798061  0.1335287959590943   F   F   F
  0.2086879801546360  0.2897399754951024  0.2233675087818199   F   F   F
  0.7823445723973066  0.3711639006519860  0.3132680495090909   F   F   F
  0.7955667169556051  0.3623786591480993  0.0525784573590897   F   F   F
  0.9630172192545814  0.0321854219388342  0.2294918520999971   F   F   F
  0.4551985273599684  0.7793522729487350  0.2173709881181836   F   F   F
  0.7065960709535588  0.5298388576292581  0.2202174192772759   F   F   F
  0.2152850640652346  0.7706511195558505  0.2267445553136369   F   F   F
  0.4524239612951817  0.0441854453249348  0.2211813762727246   F   F   F
  0.1365430804763790  0.6811498989906610  0.1363537004090887   F   F   F
  0.7012511921192939  0.0413990208692709  0.2232183047454512   F   F   F
  0.7813333648243486  0.1245508243705729  0.3139277319136369   F   F   F
  0.5140424609662162  0.8772075096148484  0.3089328937999980   F   F   F
  0.7932310882983060  0.1130335594347969  0.0506874096272725   F   F   F
  0.5386045560987753  0.8807280389435022  0.0462069311772737   F   F   F
  0.2090619885411087  0.5248216309234621  0.2253872346409125   F   F   F
  0.9573793342633579  0.2836620067898181  0.2276899675909121   F   F   F
  0.8774744330611171  0.9478040731130761  0.1404896949318157   F   F   F
  0.6987587098374988  0.2911999368415081  0.2237262709181849   F   F   F
  0.4363132765234568  0.2965243859705424  0.2219688885181839   F   F   F
  0.8594570975231619  0.9553476831430388  0.4108284974136396   F   F   F
  0.1106941285647949  0.4557493990705126  0.4146712188681789   F   F   F
  0.1098616570545019  0.9558571030810015  0.4131763945090938   F   F   F
  0.8606577288521606  0.4564861505148485  0.4105733648727252   F   F   F
  0.3600008772357697  0.9555635704084580  0.4105730988818195   F   F   F
  0.8617338279332429  0.2052110428576057  0.4107332956090914   F   F   F
  0.1107586534826837  0.2053588275500502  0.4136267309954533   F   F   F
  0.6094949135806473  0.9549553085785334  0.4075382201772726   F   F   F
  0.8596167550248239  0.7055873494148557  0.4099003696227257   F   F   F
  0.3621807571090585  0.2044906142528760  0.4136427384545485   F   F   F
  0.3601305036513125  0.7054415119564013  0.4113652488772743   F   F   F
  0.6104066527643610  0.4558330300469677  0.4097929085454552   F   F   F
  0.1099959999230791  0.7050611269007874  0.4142117313181828   F   F   F
  0.6115777299156520  0.2053117340527137  0.4116499750954574   F   F   F
  0.3616256112138814  0.4544197322359906  0.4149560919454558   F   F   F
  0.6089416950204054  0.7061247741529613  0.4053585289681791   F   F   F
  0.4741311384831022  0.5557676976463952  0.5480270119545452   T   T   T
  0.5173544409744646  0.5940496180295661  0.5477855293545487   T   T   T
 
  0.00000000E+00  0.00000000E+00  0.00000000E+00
  0.00000000E+00  0.00000000E+00  0.00000000E+00
  0.00000000E+00  0.00000000E+00  0.00000000E+00
  0.00000000E+00  0.00000000E+00  0.00000000E+00
  0.00000000E+00  0.00000000E+00  0.00000000E+00
  0.00000000E+00  0.00000000E+00  0.00000000E+00
  0.00000000E+00  0.00000000E+00  0.00000000E+00
  0.00000000E+00  0.00000000E+00  0.00000000E+00
  0.00000000E+00  0.00000000E+00  0.00000000E+00
  0.00000000E+00  0.00000000E+00  0.00000000E+00
  0.00000000E+00  0.00000000E+00  0.00000000E+00
  0.00000000E+00  0.00000000E+00  0.00000000E+00
  0.00000000E+00  0.00000000E+00  0.00000000E+00
  0.00000000E+00  0.00000000E+00  0.00000000E+00
  0.00000000E+00  0.00000000E+00  0.00000000E+00
  0.00000000E+00  0.00000000E+00  0.00000000E+00
  0.00000000E+00  0.00000000E+00  0.00000000E+00
  0.00000000E+00  0.00000000E+00  0.00000000E+00
  0.00000000E+00  0.00000000E+00  0.00000000E+00
  0.00000000E+00  0.00000000E+00  0.00000000E+00
  0.00000000E+00  0.00000000E+00  0.00000000E+00
  0.00000000E+00  0.00000000E+00  0.00000000E+00
  0.00000000E+00  0.00000000E+00  0.00000000E+00
  0.00000000E+00  0.00000000E+00  0.00000000E+00
  0.00000000E+00  0.00000000E+00  0.00000000E+00
  0.00000000E+00  0.00000000E+00  0.00000000E+00
  0.00000000E+00  0.00000000E+00  0.00000000E+00
  0.00000000E+00  0.00000000E+00  0.00000000E+00
  0.00000000E+00  0.00000000E+00  0.00000000E+00
  0.00000000E+00  0.00000000E+00  0.00000000E+00
  0.00000000E+00  0.00000000E+00  0.00000000E+00
  0.00000000E+00  0.00000000E+00  0.00000000E+00
  0.00000000E+00  0.00000000E+00  0.00000000E+00
  0.00000000E+00  0.00000000E+00  0.00000000E+00
  0.00000000E+00  0.00000000E+00  0.00000000E+00
  0.00000000E+00  0.00000000E+00  0.00000000E+00
  0.00000000E+00  0.00000000E+00  0.00000000E+00
  0.00000000E+00  0.00000000E+00  0.00000000E+00
  0.00000000E+00  0.00000000E+00  0.00000000E+00
  0.00000000E+00  0.00000000E+00  0.00000000E+00
  0.00000000E+00  0.00000000E+00  0.00000000E+00
  0.00000000E+00  0.00000000E+00  0.00000000E+00
  0.00000000E+00  0.00000000E+00  0.00000000E+00
  0.00000000E+00  0.00000000E+00  0.00000000E+00
  0.00000000E+00  0.00000000E+00  0.00000000E+00
  0.00000000E+00  0.00000000E+00  0.00000000E+00
  0.00000000E+00  0.00000000E+00  0.00000000E+00
  0.00000000E+00  0.00000000E+00  0.00000000E+00
  0.00000000E+00  0.00000000E+00  0.00000000E+00
  0.00000000E+00  0.00000000E+00  0.00000000E+00
  0.00000000E+00  0.00000000E+00  0.00000000E+00
  0.00000000E+00  0.00000000E+00  0.00000000E+00
  0.00000000E+00  0.00000000E+00  0.00000000E+00
  0.00000000E+00  0.00000000E+00  0.00000000E+00
  0.00000000E+00  0.00000000E+00  0.00000000E+00
  0.00000000E+00  0.00000000E+00  0.00000000E+00
  0.00000000E+00  0.00000000E+00  0.00000000E+00
  0.00000000E+00  0.00000000E+00  0.00000000E+00
  0.00000000E+00  0.00000000E+00  0.00000000E+00
  0.00000000E+00  0.00000000E+00  0.00000000E+00
  0.00000000E+00  0.00000000E+00  0.00000000E+00
  0.00000000E+00  0.00000000E+00  0.00000000E+00
  0.00000000E+00  0.00000000E+00  0.00000000E+00
  0.00000000E+00  0.00000000E+00  0.00000000E+00
  0.00000000E+00  0.00000000E+00  0.00000000E+00
  0.00000000E+00  0.00000000E+00  0.00000000E+00
  0.00000000E+00  0.00000000E+00  0.00000000E+00
  0.00000000E+00  0.00000000E+00  0.00000000E+00
  0.00000000E+00  0.00000000E+00  0.00000000E+00
  0.00000000E+00  0.00000000E+00  0.00000000E+00
  0.00000000E+00  0.00000000E+00  0.00000000E+00
  0.00000000E+00  0.00000000E+00  0.00000000E+00
  0.00000000E+00  0.00000000E+00  0.00000000E+00
  0.00000000E+00  0.00000000E+00  0.00000000E+00
  0.00000000E+00  0.00000000E+00  0.00000000E+00
  0.00000000E+00  0.00000000E+00  0.00000000E+00
  0.00000000E+00  0.00000000E+00  0.00000000E+00
  0.00000000E+00  0.00000000E+00  0.00000000E+00
  0.00000000E+00  0.00000000E+00  0.00000000E+00
  0.00000000E+00  0.00000000E+00  0.00000000E+00
  0.00000000E+00  0.00000000E+00  0.00000000E+00
  0.00000000E+00  0.00000000E+00  0.00000000E+00
