Pt111\(1\1\1)\(2)                       
   1.00000000000000     
    10.5600004195999997    0.0000000000000000    0.0000000000000000
    -5.2800002097999998    9.1452286273999999    0.0000000000000000
     0.0000000000000000    0.0000000000000000   20.0000000000000000
   Pt   H 
    64     1
Selective dynamics
Direct
  0.9999984446215961  0.0000015553793773  0.0557922949150012   F   F   F
  0.3333317286582087  0.1666682603465262  0.1775239735950009   F   F   F
  0.1678921311824098  0.3340332224522241  0.2986307089438510   T   T   T
 -0.0000061258924367  0.0000186905824850  0.4192359505847690   T   T   T
  0.9999984416169312  0.2500015483757210  0.0557922949150012   F   F   F
  0.3333317206590891  0.4166682673501754  0.1775239735950009   F   F   F
  0.1674586402276544  0.0849124774157283  0.2985688733668713   T   T   T
 -0.0009661638776886  0.2498032420237070  0.4158171196207852   T   T   T
  0.2499984416169312  0.2500015483757210  0.0557922949150012   F   F   F
  0.0833317206590891  0.4166682673501754  0.1775239735950009   F   F   F
  0.4165666490093338  0.0831426488598997  0.2967703472699111   T   T   T
  0.2486899166925865  0.2473751662546829  0.4260721357190482   T   T   T
  0.2499984446215961  0.0000015553793773  0.0557922949150012   F   F   F
  0.0833317236582047  0.1666682603465262  0.1775239735950009   F   F   F
  0.4161458923112917  0.3340332224522241  0.2986307089438510   T   T   T
  0.2500294826111065  0.0000186905824850  0.4192359505847690   T   T   T
  0.4999984446215961  0.0000015553793773  0.0557922949150012   F   F   F
  0.8333316836582085  0.1666682603465262  0.1775239735950009   F   F   F
  0.6670709932556003  0.3336472471188974  0.2967831333003241   T   T   T
  0.5000002604588679  0.0001756135612261  0.4205252432968820   T   T   T
  0.4999984296188273  0.2500015483757210  0.0557922949150012   F   F   F
  0.8333316756590889  0.4166682673501754  0.1775239735950009   F   F   F
  0.6667469902992754  0.0834891095665393  0.2986363445944885   T   T   T
  0.5007740610337817  0.2498032420237070  0.4158171196207852   T   T   T
  0.7499984076207227  0.2500015483757210  0.0557922949150012   F   F   F
  0.5833316756590889  0.4166682673501754  0.1775239735950009   F   F   F
  0.9165808248977294  0.0831426488598997  0.2967703472699111   T   T   T
  0.7502539195036618  0.2505032398692504  0.4206070265851913   T   T   T
  0.7499984216197078  0.0000015553793773  0.0557922949150012   F   F   F
  0.5833316616506323  0.1666682603465262  0.1775239735950009   F   F   F
  0.9165810779066699  0.3336472471188974  0.2967831333003241   T   T   T
  0.7501799962366476  0.0001756135612261  0.4205252432968820   T   T   T
  0.9999984376190483  0.5000015423780582  0.0557922949150012   F   F   F
  0.3333317066506325  0.6666682603465262  0.1775239735950009   F   F   F
  0.1665989964332806  0.8334015018580205  0.2974413680006017   T   T   T
  0.0000760678526876  0.5004468623603698  0.4191547381578987   T   T   T
  0.9999984326223199  0.7500015093827130  0.0557922949150012   F   F   F
  0.3333317276521655  0.9166682803514945  0.1775239735950009   F   F   F
  0.1674580696953516  0.5827410780728751  0.2985183304135922   T   T   T
  0.0001330556129574  0.7502614230916321  0.4183232513998204   T   T   T
  0.2499984326223199  0.7500015093827130  0.0557922949150012   F   F   F
  0.0833317276521655  0.9166682803514945  0.1775239735950009   F   F   F
  0.4161574603064606  0.5823100505657645  0.2986464530558459   T   T   T
  0.2499782850288121  0.7502790864377936  0.4191680352179689   T   T   T
  0.2499984376190483  0.5000015423780582  0.0557922949150012   F   F   F
  0.0833317066506325  0.6666682603465262  0.1775239735950009   F   F   F
  0.4165690681528540  0.8336565189875238  0.2967660982075451   T   T   T
  0.2487359127902539  0.5016799248967905  0.4259014830250509   T   T   T
  0.4999984376190483  0.5000015423780582  0.0557922949150012   F   F   F
  0.8333317066506325  0.6666682603465262  0.1775239735950009   F   F   F
  0.6670923208723619  0.8336565189875238  0.2967660982075451   T   T   T
  0.5029486772389231  0.5016799248967905  0.4259014830250509   T   T   T
  0.4999984326223199  0.7500015093827130  0.0557922949150012   F   F   F
  0.8333317046597415  0.9166682803514945  0.1775239735950009   F   F   F
  0.6652878904133125  0.5827410780728751  0.2985183304135922   T   T   T
  0.5006677554134057  0.7513308226925292  0.4158169738866941   T   T   T
  0.7499984106242152  0.7500015093827130  0.0557922949150012   F   F   F
  0.5833316826521724  0.9166682803514945  0.1775239735950009   F   F   F
  0.9168122607216150  0.5836196513960731  0.2974380912327919   T   T   T
  0.7503054675451597  0.7502790864377936  0.4191680352179689   T   T   T
  0.7499983926190481  0.5000015423780582  0.0557922949150012   F   F   F
  0.5833316616506323  0.6666682603465262  0.1775239735950009   F   F   F
  0.9168073304624321  0.8334015018580205  0.2974413680006017   T   T   T
  0.7503754146400690  0.5004468623603698  0.4191547381578987   T   T   T
  0.3330883110061547  0.4161766220217809  0.4769092952353534   T   T   T
 
  0.00000000E+00  0.00000000E+00  0.00000000E+00
  0.00000000E+00  0.00000000E+00  0.00000000E+00
  0.00000000E+00  0.00000000E+00  0.00000000E+00
  0.00000000E+00  0.00000000E+00  0.00000000E+00
  0.00000000E+00  0.00000000E+00  0.00000000E+00
  0.00000000E+00  0.00000000E+00  0.00000000E+00
  0.00000000E+00  0.00000000E+00  0.00000000E+00
  0.00000000E+00  0.00000000E+00  0.00000000E+00
  0.00000000E+00  0.00000000E+00  0.00000000E+00
  0.00000000E+00  0.00000000E+00  0.00000000E+00
  0.00000000E+00  0.00000000E+00  0.00000000E+00
  0.00000000E+00  0.00000000E+00  0.00000000E+00
  0.00000000E+00  0.00000000E+00  0.00000000E+00
  0.00000000E+00  0.00000000E+00  0.00000000E+00
  0.00000000E+00  0.00000000E+00  0.00000000E+00
  0.00000000E+00  0.00000000E+00  0.00000000E+00
  0.00000000E+00  0.00000000E+00  0.00000000E+00
  0.00000000E+00  0.00000000E+00  0.00000000E+00
  0.00000000E+00  0.00000000E+00  0.00000000E+00
  0.00000000E+00  0.00000000E+00  0.00000000E+00
  0.00000000E+00  0.00000000E+00  0.00000000E+00
  0.00000000E+00  0.00000000E+00  0.00000000E+00
  0.00000000E+00  0.00000000E+00  0.00000000E+00
  0.00000000E+00  0.00000000E+00  0.00000000E+00
  0.00000000E+00  0.00000000E+00  0.00000000E+00
  0.00000000E+00  0.00000000E+00  0.00000000E+00
  0.00000000E+00  0.00000000E+00  0.00000000E+00
  0.00000000E+00  0.00000000E+00  0.00000000E+00
  0.00000000E+00  0.00000000E+00  0.00000000E+00
  0.00000000E+00  0.00000000E+00  0.00000000E+00
  0.00000000E+00  0.00000000E+00  0.00000000E+00
  0.00000000E+00  0.00000000E+00  0.00000000E+00
  0.00000000E+00  0.00000000E+00  0.00000000E+00
  0.00000000E+00  0.00000000E+00  0.00000000E+00
  0.00000000E+00  0.00000000E+00  0.00000000E+00
  0.00000000E+00  0.00000000E+00  0.00000000E+00
  0.00000000E+00  0.00000000E+00  0.00000000E+00
  0.00000000E+00  0.00000000E+00  0.00000000E+00
  0.00000000E+00  0.00000000E+00  0.00000000E+00
  0.00000000E+00  0.00000000E+00  0.00000000E+00
  0.00000000E+00  0.00000000E+00  0.00000000E+00
  0.00000000E+00  0.00000000E+00  0.00000000E+00
  0.00000000E+00  0.00000000E+00  0.00000000E+00
  0.00000000E+00  0.00000000E+00  0.00000000E+00
  0.00000000E+00  0.00000000E+00  0.00000000E+00
  0.00000000E+00  0.00000000E+00  0.00000000E+00
  0.00000000E+00  0.00000000E+00  0.00000000E+00
  0.00000000E+00  0.00000000E+00  0.00000000E+00
  0.00000000E+00  0.00000000E+00  0.00000000E+00
  0.00000000E+00  0.00000000E+00  0.00000000E+00
  0.00000000E+00  0.00000000E+00  0.00000000E+00
  0.00000000E+00  0.00000000E+00  0.00000000E+00
  0.00000000E+00  0.00000000E+00  0.00000000E+00
  0.00000000E+00  0.00000000E+00  0.00000000E+00
  0.00000000E+00  0.00000000E+00  0.00000000E+00
  0.00000000E+00  0.00000000E+00  0.00000000E+00
  0.00000000E+00  0.00000000E+00  0.00000000E+00
  0.00000000E+00  0.00000000E+00  0.00000000E+00
  0.00000000E+00  0.00000000E+00  0.00000000E+00
  0.00000000E+00  0.00000000E+00  0.00000000E+00
  0.00000000E+00  0.00000000E+00  0.00000000E+00
  0.00000000E+00  0.00000000E+00  0.00000000E+00
  0.00000000E+00  0.00000000E+00  0.00000000E+00
  0.00000000E+00  0.00000000E+00  0.00000000E+00
  0.00000000E+00  0.00000000E+00  0.00000000E+00
