Pt111\(1\1\1)\(2)                       
   1.00000000000000     
    10.5600004195999997    0.0000000000000000    0.0000000000000000
    -5.2800002097999998    9.1452286273999999    0.0000000000000000
     0.0000000000000000    0.0000000000000000   20.0000000000000000
   Pt   H 
    64     1
Selective dynamics
Direct
  0.9999984446215961  0.0000015553793773  0.0557922949150012   F   F   F
  0.3331433966917160  0.1667944272942442  0.1776733593330586   T   T   T
  0.1676169211758911  0.3339271827772157  0.2997128772225868   T   T   T
  0.0000239080208889  0.0000771561539961  0.4190467668938810   T   T   T
  0.9999984416169312  0.2500015483757210  0.0557922949150012   F   F   F
  0.3333368714200607  0.4166765718179010  0.1805525216742910   T   T   T
  0.1674949678483840  0.0849821200339572  0.2986324593189620   T   T   T
  0.9992006885094977  0.2498285329357988  0.4161070716566572   T   T   T
  0.2499984416169312  0.2500015483757210  0.0557922949150012   F   F   F
  0.0836337212459277  0.4168607822883145  0.1776237755826598   T   T   T
  0.4165256513122418  0.0830596987773480  0.2966803552402160   T   T   T
  0.2487379837419014  0.2474668714999026  0.4266354492779878   T   T   T
  0.2499984446215961  0.0000015553793773  0.0557922949150012   F   F   F
  0.0836486366686198  0.1667947517632746  0.1776723325389852   T   T   T
  0.4163189068540302  0.3339270413475025  0.2997148205829127   T   T   T
  0.2500638515924997  0.0000762826018333  0.4190481736530402   T   T   T
  0.4999984446215961  0.0000015553793773  0.0557922949150012   F   F   F
  0.8333324011951904  0.1666798952609697  0.1775294706730729   T   T   T
  0.6672046190050042  0.3337490391936799  0.2967003081442882   T   T   T
  0.4999897541218959  0.0001430425794113  0.4201209051697656   T   T   T
  0.4999984296188273  0.2500015483757210  0.0557922949150012   F   F   F
  0.8333372867686150  0.4166804223144936  0.1772390115030742   T   T   T
  0.6667448300159716  0.0834847948408394  0.2983084363156011   T   T   T
  0.5006298045756252  0.2498253252987475  0.4161085302835123   T   T   T
  0.7499984076207227  0.2500015483757210  0.0557922949150012   F   F   F
  0.5832208349076223  0.4168578879355167  0.1776250910942795   T   T   T
  0.9165398883233695  0.0830608295828797  0.2966810035443302   T   T   T
  0.7501855229138079  0.2503661808560338  0.4201464304892578   T   T   T
  0.7499984216197078  0.0000015553793773  0.0557922949150012   F   F   F
  0.5833395134181888  0.1666793569358670  0.1775291840405606   T   T   T
  0.9165463237773623  0.3337507537000719  0.2967006780317663   T   T   T
  0.7501571362672027  0.0001402317604825  0.4201200524910057   T   T   T
  0.9999984376190483  0.5000015423780582  0.0557922949150012   F   F   F
  0.3331544082002025  0.6663797211075578  0.1776474165159611   T   T   T
  0.1666535435651094  0.8334526011341648  0.2971337082129006   T   T   T
  0.0000210700913749  0.5003103766444195  0.4189982408533079   T   T   T
  0.9999984326223199  0.7500015093827130  0.0557922949150012   F   F   F
  0.3333280870521539  0.9166773453573352  0.1772411396770319   T   T   T
  0.1674817198053796  0.5827756904980631  0.2985788298266831   T   T   T
  0.0001107590003659  0.7502130544380231  0.4176499928740096   T   T   T
  0.2499984326223199  0.7500015093827130  0.0557922949150012   F   F   F
  0.0833810550655024  0.9167640567969934  0.1772682493828339   T   T   T
  0.4163091271862265  0.5826094932341852  0.2997169089071136   T   T   T
  0.2500605445028556  0.7503205144858881  0.4190288094092574   T   T   T
  0.2499984376190483  0.5000015423780582  0.0557922949150012   F   F   F
  0.0833843896729983  0.6666320018452159  0.1772373742368636   T   T   T
  0.4165164814505338  0.8336969922339379  0.2966942828194838   T   T   T
  0.2487055893327259  0.5016511210163992  0.4264898370488574   T   T   T
  0.4999984376190483  0.5000015423780582  0.0557922949150012   F   F   F
  0.8332432966183785  0.6666305028826103  0.1772365653619068   T   T   T
  0.6671845403092519  0.8336952043119196  0.2966938364408777   T   T   T
  0.5029513033166062  0.5016532780077065  0.4264920393705275   T   T   T
  0.4999984326223199  0.7500015093827130  0.0557922949150012   F   F   F
  0.8333441382910570  0.9166759639028088  0.1772399669134931   T   T   T
  0.6652985036180925  0.5827722168077015  0.2985780823364954   T   T   T
  0.5005438730554637  0.7510918124335136  0.4161311308848467   T   T   T
  0.7499984106242152  0.7500015093827130  0.0557922949150012   F   F   F
  0.5833411235946686  0.9166881969867299  0.1775276415087986   T   T   T
  0.9168186996285457  0.5836333052549306  0.2971304521565836   T   T   T
  0.7502675402338608  0.7503219402266482  0.4190262763210252   T   T   T
  0.7499983926190481  0.5000015423780582  0.0557922949150012   F   F   F
  0.5832219501187083  0.6663775377559430  0.1776479738363392   T   T   T
  0.9168059469721337  0.8334520224226722  0.2971328921372579   T   T   T
  0.7502962017411966  0.5003094236404422  0.4189997524008215   T   T   T
  0.3332244761783431  0.4164452537064166  0.4776288747617634   T   T   T
 
  0.00000000E+00  0.00000000E+00  0.00000000E+00
  0.00000000E+00  0.00000000E+00  0.00000000E+00
  0.00000000E+00  0.00000000E+00  0.00000000E+00
  0.00000000E+00  0.00000000E+00  0.00000000E+00
  0.00000000E+00  0.00000000E+00  0.00000000E+00
  0.00000000E+00  0.00000000E+00  0.00000000E+00
  0.00000000E+00  0.00000000E+00  0.00000000E+00
  0.00000000E+00  0.00000000E+00  0.00000000E+00
  0.00000000E+00  0.00000000E+00  0.00000000E+00
  0.00000000E+00  0.00000000E+00  0.00000000E+00
  0.00000000E+00  0.00000000E+00  0.00000000E+00
  0.00000000E+00  0.00000000E+00  0.00000000E+00
  0.00000000E+00  0.00000000E+00  0.00000000E+00
  0.00000000E+00  0.00000000E+00  0.00000000E+00
  0.00000000E+00  0.00000000E+00  0.00000000E+00
  0.00000000E+00  0.00000000E+00  0.00000000E+00
  0.00000000E+00  0.00000000E+00  0.00000000E+00
  0.00000000E+00  0.00000000E+00  0.00000000E+00
  0.00000000E+00  0.00000000E+00  0.00000000E+00
  0.00000000E+00  0.00000000E+00  0.00000000E+00
  0.00000000E+00  0.00000000E+00  0.00000000E+00
  0.00000000E+00  0.00000000E+00  0.00000000E+00
  0.00000000E+00  0.00000000E+00  0.00000000E+00
  0.00000000E+00  0.00000000E+00  0.00000000E+00
  0.00000000E+00  0.00000000E+00  0.00000000E+00
  0.00000000E+00  0.00000000E+00  0.00000000E+00
  0.00000000E+00  0.00000000E+00  0.00000000E+00
  0.00000000E+00  0.00000000E+00  0.00000000E+00
  0.00000000E+00  0.00000000E+00  0.00000000E+00
  0.00000000E+00  0.00000000E+00  0.00000000E+00
  0.00000000E+00  0.00000000E+00  0.00000000E+00
  0.00000000E+00  0.00000000E+00  0.00000000E+00
  0.00000000E+00  0.00000000E+00  0.00000000E+00
  0.00000000E+00  0.00000000E+00  0.00000000E+00
  0.00000000E+00  0.00000000E+00  0.00000000E+00
  0.00000000E+00  0.00000000E+00  0.00000000E+00
  0.00000000E+00  0.00000000E+00  0.00000000E+00
  0.00000000E+00  0.00000000E+00  0.00000000E+00
  0.00000000E+00  0.00000000E+00  0.00000000E+00
  0.00000000E+00  0.00000000E+00  0.00000000E+00
  0.00000000E+00  0.00000000E+00  0.00000000E+00
  0.00000000E+00  0.00000000E+00  0.00000000E+00
  0.00000000E+00  0.00000000E+00  0.00000000E+00
  0.00000000E+00  0.00000000E+00  0.00000000E+00
  0.00000000E+00  0.00000000E+00  0.00000000E+00
  0.00000000E+00  0.00000000E+00  0.00000000E+00
  0.00000000E+00  0.00000000E+00  0.00000000E+00
  0.00000000E+00  0.00000000E+00  0.00000000E+00
  0.00000000E+00  0.00000000E+00  0.00000000E+00
  0.00000000E+00  0.00000000E+00  0.00000000E+00
  0.00000000E+00  0.00000000E+00  0.00000000E+00
  0.00000000E+00  0.00000000E+00  0.00000000E+00
  0.00000000E+00  0.00000000E+00  0.00000000E+00
  0.00000000E+00  0.00000000E+00  0.00000000E+00
  0.00000000E+00  0.00000000E+00  0.00000000E+00
  0.00000000E+00  0.00000000E+00  0.00000000E+00
  0.00000000E+00  0.00000000E+00  0.00000000E+00
  0.00000000E+00  0.00000000E+00  0.00000000E+00
  0.00000000E+00  0.00000000E+00  0.00000000E+00
  0.00000000E+00  0.00000000E+00  0.00000000E+00
  0.00000000E+00  0.00000000E+00  0.00000000E+00
  0.00000000E+00  0.00000000E+00  0.00000000E+00
  0.00000000E+00  0.00000000E+00  0.00000000E+00
  0.00000000E+00  0.00000000E+00  0.00000000E+00
  0.00000000E+00  0.00000000E+00  0.00000000E+00
