top                                     
   1.00000000000000     
    10.5600004195999997    0.0000000000000000    0.0000000000000000
    -5.2800002097999998    9.1452286273999999    0.0000000000000000
     0.0000000000000000    0.0000000000000000   20.0000000000000000
   Pt
    64
Selective dynamics
Direct
  0.3335131338766584  0.1693453490760817  0.1809677388228683   T   T   T
  0.1671931020477129  0.3335322553590059  0.3145681207531233   T   T   T
  0.0001582561450909  0.0006276013011300  0.4167056209101009   T   T   T
  0.3333347432985007  0.4166593833080365  0.1976538397064755   T   T   T
  0.1681882026115392  0.0863397867488857  0.2999735061776927   T   T   T
  0.0007137564049689  0.2502287224683915  0.4278751003195475   T   T   T
  0.0858481991654271  0.4164769005226180  0.1809545636923204   T   T   T
  0.4173629741312891  0.0852668354541623  0.2971069116528100   T   T   T
  0.2493037890218691  0.2485309830642268  0.4375711774371656   T   T   T
  0.0858412934205313  0.1693462890329468  0.1809738003022245   T   T   T
  0.4163820077333880  0.3335294691821326  0.3145608253596631   T   T   T
  0.2505415783352725  0.0006255122084641  0.4166928130945894   T   T   T
  0.8346874697030553  0.1673322585762630  0.1762083975260278   T   T   T
  0.6646516863936525  0.3325605499322042  0.2970791740646907   T   T   T
  0.5003172047460304  0.0000336001005694  0.4162125876687936   T   T   T
  0.8330346331722045  0.4160619384889765  0.1753433462851424   T   T   T
  0.6666438741911681  0.0832311718505140  0.2942536932229221   T   T   T
  0.4995825346328066  0.2502444484560458  0.4278716714696341   T   T   T
  0.5806440016399511  0.4164789396099943  0.1809502355577828   T   T   T
  0.9179435278745263  0.0852700920299771  0.2971205268491597   T   T   T
  0.7497885571436865  0.2495043521365279  0.4161792003799002   T   T   T
  0.5826527369097435  0.1673323724948451  0.1762038033170159   T   T   T
  0.9179642172087851  0.3325658734438922  0.2970834094003084   T   T   T
  0.7497903005308553  0.0000302524869603  0.4162338258998238   T   T   T
  0.3335196532877766  0.6641462663439029  0.1809659825269863   T   T   T
  0.1684629252210966  0.8341828745556173  0.2913027291108867   T   T   T
  0.0001690928654309  0.4992777242320288  0.4166856214485635   T   T   T
  0.3339412606269588  0.9169673317534782  0.1753586680252077   T   T   T
  0.1682003648339756  0.5817204372597262  0.2999685704590245   T   T   T
  0.9999729063224323  0.7498710643885854  0.4083929328208178   T   T   T
  0.0844764302754761  0.9189521561701253  0.1741811225320916   T   T   T
  0.4163751973369308  0.5827003710131419  0.3145876146652689   T   T   T
  0.2505476432179990  0.7496545323254354  0.4167128913504940   T   T   T
  0.0844847667839801  0.6655255370755511  0.1741794540362868   T   T   T
  0.4173585069956579  0.8319576578207366  0.2971165159294988   T   T   T
  0.2493043234592042  0.5005189427770029  0.4375933809788817   T   T   T
  0.8310469713016585  0.6655255111195357  0.1741790516633827   T   T   T
  0.6646352078144916  0.8319557488631618  0.2971265477561424   T   T   T
  0.5012875549978054  0.5005103502736539  0.4375864359693708   T   T   T
  0.8330277379865949  0.9169716780836739  0.1753656289644324   T   T   T
  0.6635680393152924  0.5817212356921398  0.2999647259946573   T   T   T
  0.4996009982983058  0.7491300656767403  0.4279070599016083   T   T   T
  0.5826555659606283  0.9153022744207920  0.1762172657113147   T   T   T
  0.9157637607790506  0.5814845487189529  0.2912901172251381   T   T   T
  0.7491885946051233  0.7496534947750864  0.4167189685422100   T   T   T
  0.5806408539088562  0.6641511748502128  0.1809679706858759   T   T   T
  0.9157477558038493  0.8341818868887578  0.2913057542693578   T   T   T
  0.7491826930085426  0.4992700704524778  0.4166685344300389   T   T   T
  0.0000000000000000  0.0000000000000000  0.0557900009999983   F   F   F
  0.9999999969953350  0.2499999929963508  0.0557900009999983   F   F   F
  0.2499999969953350  0.2499999929963508  0.0557900009999983   F   F   F
  0.2500000000000000  0.0000000000000000  0.0557900009999983   F   F   F
  0.5000000000000000  0.0000000000000000  0.0557900009999983   F   F   F
  0.4999999849972241  0.2499999929963508  0.0557900009999983   F   F   F
  0.7499999629991194  0.2499999929963508  0.0557900009999983   F   F   F
  0.7499999769981045  0.0000000000000000  0.0557900009999983   F   F   F
  0.9999999929974450  0.4999999869986880  0.0557900009999983   F   F   F
  0.9999999880007238  0.7499999540033357  0.0557900009999983   F   F   F
  0.2499999880007238  0.7499999540033357  0.0557900009999983   F   F   F
  0.2499999929974450  0.4999999869986880  0.0557900009999983   F   F   F
  0.4999999929974450  0.4999999869986880  0.0557900009999983   F   F   F
  0.4999999880007238  0.7499999540033357  0.0557900009999983   F   F   F
  0.7499999660026191  0.7499999540033357  0.0557900009999983   F   F   F
  0.7499999479974520  0.4999999869986880  0.0557900009999983   F   F   F
 
  0.00000000E+00  0.00000000E+00  0.00000000E+00
  0.00000000E+00  0.00000000E+00  0.00000000E+00
  0.00000000E+00  0.00000000E+00  0.00000000E+00
  0.00000000E+00  0.00000000E+00  0.00000000E+00
  0.00000000E+00  0.00000000E+00  0.00000000E+00
  0.00000000E+00  0.00000000E+00  0.00000000E+00
  0.00000000E+00  0.00000000E+00  0.00000000E+00
  0.00000000E+00  0.00000000E+00  0.00000000E+00
  0.00000000E+00  0.00000000E+00  0.00000000E+00
  0.00000000E+00  0.00000000E+00  0.00000000E+00
  0.00000000E+00  0.00000000E+00  0.00000000E+00
  0.00000000E+00  0.00000000E+00  0.00000000E+00
  0.00000000E+00  0.00000000E+00  0.00000000E+00
  0.00000000E+00  0.00000000E+00  0.00000000E+00
  0.00000000E+00  0.00000000E+00  0.00000000E+00
  0.00000000E+00  0.00000000E+00  0.00000000E+00
  0.00000000E+00  0.00000000E+00  0.00000000E+00
  0.00000000E+00  0.00000000E+00  0.00000000E+00
  0.00000000E+00  0.00000000E+00  0.00000000E+00
  0.00000000E+00  0.00000000E+00  0.00000000E+00
  0.00000000E+00  0.00000000E+00  0.00000000E+00
  0.00000000E+00  0.00000000E+00  0.00000000E+00
  0.00000000E+00  0.00000000E+00  0.00000000E+00
  0.00000000E+00  0.00000000E+00  0.00000000E+00
  0.00000000E+00  0.00000000E+00  0.00000000E+00
  0.00000000E+00  0.00000000E+00  0.00000000E+00
  0.00000000E+00  0.00000000E+00  0.00000000E+00
  0.00000000E+00  0.00000000E+00  0.00000000E+00
  0.00000000E+00  0.00000000E+00  0.00000000E+00
  0.00000000E+00  0.00000000E+00  0.00000000E+00
  0.00000000E+00  0.00000000E+00  0.00000000E+00
  0.00000000E+00  0.00000000E+00  0.00000000E+00
  0.00000000E+00  0.00000000E+00  0.00000000E+00
  0.00000000E+00  0.00000000E+00  0.00000000E+00
  0.00000000E+00  0.00000000E+00  0.00000000E+00
  0.00000000E+00  0.00000000E+00  0.00000000E+00
  0.00000000E+00  0.00000000E+00  0.00000000E+00
  0.00000000E+00  0.00000000E+00  0.00000000E+00
  0.00000000E+00  0.00000000E+00  0.00000000E+00
  0.00000000E+00  0.00000000E+00  0.00000000E+00
  0.00000000E+00  0.00000000E+00  0.00000000E+00
  0.00000000E+00  0.00000000E+00  0.00000000E+00
  0.00000000E+00  0.00000000E+00  0.00000000E+00
  0.00000000E+00  0.00000000E+00  0.00000000E+00
  0.00000000E+00  0.00000000E+00  0.00000000E+00
  0.00000000E+00  0.00000000E+00  0.00000000E+00
  0.00000000E+00  0.00000000E+00  0.00000000E+00
  0.00000000E+00  0.00000000E+00  0.00000000E+00
  0.00000000E+00  0.00000000E+00  0.00000000E+00
  0.00000000E+00  0.00000000E+00  0.00000000E+00
  0.00000000E+00  0.00000000E+00  0.00000000E+00
  0.00000000E+00  0.00000000E+00  0.00000000E+00
  0.00000000E+00  0.00000000E+00  0.00000000E+00
  0.00000000E+00  0.00000000E+00  0.00000000E+00
  0.00000000E+00  0.00000000E+00  0.00000000E+00
  0.00000000E+00  0.00000000E+00  0.00000000E+00
  0.00000000E+00  0.00000000E+00  0.00000000E+00
  0.00000000E+00  0.00000000E+00  0.00000000E+00
  0.00000000E+00  0.00000000E+00  0.00000000E+00
  0.00000000E+00  0.00000000E+00  0.00000000E+00
  0.00000000E+00  0.00000000E+00  0.00000000E+00
  0.00000000E+00  0.00000000E+00  0.00000000E+00
  0.00000000E+00  0.00000000E+00  0.00000000E+00
  0.00000000E+00  0.00000000E+00  0.00000000E+00
