Pt111                                   
   1.00000000000000     
    10.8599996560000012    0.0000000000000000    0.0000000000000000
     5.4299998282000006    9.4050210000029999    0.0000000000000000
     0.0000000000000000    0.0000000000000000   22.0000000000000000
   Pt
    80
Direct
  0.7846020185489664  0.8694243667900210  0.3310418439665668
  0.0347194803622273  0.8691748422426855  0.3310879929916908
  0.0343905942694107  0.6194809060927327  0.3312149047240922
  0.7873349205952280  0.8674952269035785  0.0152308212330752
  0.0367320842410379  0.8681520879648303  0.0153527600735615
  0.0373989073824603  0.6176409446696383  0.0154994863100129
  0.6194189960854999  0.2016990408274282  0.1221737267762251
  0.3693809322150230  0.9517463079397430  0.1222103793626061
  0.0344422346112907  0.3694153470373109  0.3311890714934691
  0.0370201046537346  0.3674583872217170  0.0155577393754740
  0.8693491073879187  0.2018116199353344  0.1220913001463870
  0.9519431744734277  0.5356790918666761  0.2267048579758111
  0.2844305955172857  0.1194838721488480  0.3311780932099708
  0.5344922903557716  0.6195221407076517  0.3311140799031236
  0.2844340056885031  0.3693731398781779  0.3313076783320668
  0.2873765952086842  0.1175330330832480  0.0155092398914221
  0.5370283186569793  0.6177182214098025  0.0154576016743420
  0.2869306445833431  0.3679224259967242  0.0155646461657355
  0.6194349702692961  0.9517380813390730  0.1221158665980937
  0.7018991096796299  0.7857057381763326  0.2265769546789400
  0.8694070270726044  0.7018263132219715  0.1221937459109768
  0.6195360711762063  0.4517638478941066  0.1221993142910307
  0.2845952444981066  0.8693977234438250  0.3311471472683536
  0.2871738252048246  0.8674417730834065  0.0154894865791277
  0.6194883820986448  0.7018104038513684  0.1221261640013722
  0.2017882891293397  0.0357409189886013  0.2266798374368548
  0.8676766847044277  0.9529913065078475  0.4377776325514517
  0.1173620639465227  0.4531361408885743  0.4382774832409524
  0.1172320193948408  0.9527579748215089  0.4379195590076321
  0.8675731080530511  0.4527692797050094  0.4379530440842103
  0.3669315861961024  0.9531288761482628  0.4380139637182481
  0.8671887226140740  0.2032409709662346  0.4379605662266002
  0.1173553479976590  0.2030894160092629  0.4380224725357849
  0.6175491146546861  0.9530782421543265  0.4378447400229177
  0.8668790827573929  0.7030466754428630  0.4379362869106131
  0.3674447979222819  0.2025901134716008  0.4380757406118079
  0.3676854364024393  0.7029936324394157  0.4380307331534254
  0.6171252566774967  0.4529290153904384  0.4379394720429772
  0.1174341582711520  0.7026714398959939  0.4380461287935091
  0.6171512757688404  0.2031709652152784  0.4378102646087569
  0.5342150095213825  0.3695401549704442  0.3310986995215401
  0.5376474681849217  0.3673583408565690  0.0154035115610682
  0.5344173166990771  0.1195707757797919  0.3310687435266644
  0.5369274456592876  0.1179193705781429  0.0153290209664476
  0.8693781160554437  0.4518802796944357  0.1222732369251318
  0.1194584541992256  0.4517461022741998  0.1223683905509390
  0.0344642274484883  0.1194664752470871  0.3311553789912338
  0.0371957276029917  0.1175270138609221  0.0153231484028069
  0.1193796142437265  0.9517801007866638  0.1222630085128245
  0.3670034144907461  0.4531003318957119  0.4382292109734394
  0.4519111422930919  0.5356408971292623  0.2266954688926077
  0.6173936100034680  0.7029565251408769  0.4379278769556478
  0.3693120500584044  0.2018414474328125  0.1223099325694363
  0.1194348561027496  0.2016564451820670  0.1222742190644723
  0.9519478815184286  0.7856515064222762  0.2266792766393024
  0.7843875771061235  0.6194664516132562  0.3310793685656890
  0.2844859592448188  0.6194763810983090  0.3312580140257637
  0.7870878835179340  0.6179567151936354  0.0153573722508042
  0.2873208842766459  0.6175525319909170  0.0154873564701319
  0.3693384632412986  0.7017612812234617  0.1222807710380422
  0.3695367096299975  0.4518049357916283  0.1222576315999007
  0.2016884663911966  0.2857733673345848  0.2267836373967143
  0.7843036126608212  0.3694762335511044  0.3310898709950507
  0.7872776184002959  0.3679514371442565  0.0152802673978840
  0.9518515915345702  0.0356786501143773  0.2266535131115646
  0.4519398298199633  0.7857662153924991  0.2266479753287385
  0.7019092853264368  0.5356704625804483  0.2266324971778531
  0.2019014349156691  0.7857219355475564  0.2267190795555507
  0.4518362039936932  0.0356535517395997  0.2267101471728594
  0.1195018543927517  0.7018589200258987  0.1222523523545718
  0.7018007930455923  0.0356607118905856  0.2265952291211306
  0.7844011989789053  0.1195825704792881  0.3310105541651467
  0.5345436175789047  0.8694742192477847  0.3311480028803331
  0.7869536912472128  0.1177381509390116  0.0151841713939547
  0.5372347044800705  0.8678857375978524  0.0152472441240192
  0.2018875492972612  0.5356886479902343  0.2267477940718194
  0.9518361510176234  0.2856581448806423  0.2266989041189404
  0.8691736140532740  0.9518780234899538  0.1221645144796355
  0.7017828771679859  0.2856561520833623  0.2265979653822967
  0.4517842252731157  0.2857450310370169  0.2267438598887637
 
  0.00000000E+00  0.00000000E+00  0.00000000E+00
  0.00000000E+00  0.00000000E+00  0.00000000E+00
  0.00000000E+00  0.00000000E+00  0.00000000E+00
  0.00000000E+00  0.00000000E+00  0.00000000E+00
  0.00000000E+00  0.00000000E+00  0.00000000E+00
  0.00000000E+00  0.00000000E+00  0.00000000E+00
  0.00000000E+00  0.00000000E+00  0.00000000E+00
  0.00000000E+00  0.00000000E+00  0.00000000E+00
  0.00000000E+00  0.00000000E+00  0.00000000E+00
  0.00000000E+00  0.00000000E+00  0.00000000E+00
  0.00000000E+00  0.00000000E+00  0.00000000E+00
  0.00000000E+00  0.00000000E+00  0.00000000E+00
  0.00000000E+00  0.00000000E+00  0.00000000E+00
  0.00000000E+00  0.00000000E+00  0.00000000E+00
  0.00000000E+00  0.00000000E+00  0.00000000E+00
  0.00000000E+00  0.00000000E+00  0.00000000E+00
  0.00000000E+00  0.00000000E+00  0.00000000E+00
  0.00000000E+00  0.00000000E+00  0.00000000E+00
  0.00000000E+00  0.00000000E+00  0.00000000E+00
  0.00000000E+00  0.00000000E+00  0.00000000E+00
  0.00000000E+00  0.00000000E+00  0.00000000E+00
  0.00000000E+00  0.00000000E+00  0.00000000E+00
  0.00000000E+00  0.00000000E+00  0.00000000E+00
  0.00000000E+00  0.00000000E+00  0.00000000E+00
  0.00000000E+00  0.00000000E+00  0.00000000E+00
  0.00000000E+00  0.00000000E+00  0.00000000E+00
  0.00000000E+00  0.00000000E+00  0.00000000E+00
  0.00000000E+00  0.00000000E+00  0.00000000E+00
  0.00000000E+00  0.00000000E+00  0.00000000E+00
  0.00000000E+00  0.00000000E+00  0.00000000E+00
  0.00000000E+00  0.00000000E+00  0.00000000E+00
  0.00000000E+00  0.00000000E+00  0.00000000E+00
  0.00000000E+00  0.00000000E+00  0.00000000E+00
  0.00000000E+00  0.00000000E+00  0.00000000E+00
  0.00000000E+00  0.00000000E+00  0.00000000E+00
  0.00000000E+00  0.00000000E+00  0.00000000E+00
  0.00000000E+00  0.00000000E+00  0.00000000E+00
  0.00000000E+00  0.00000000E+00  0.00000000E+00
  0.00000000E+00  0.00000000E+00  0.00000000E+00
  0.00000000E+00  0.00000000E+00  0.00000000E+00
  0.00000000E+00  0.00000000E+00  0.00000000E+00
  0.00000000E+00  0.00000000E+00  0.00000000E+00
  0.00000000E+00  0.00000000E+00  0.00000000E+00
  0.00000000E+00  0.00000000E+00  0.00000000E+00
  0.00000000E+00  0.00000000E+00  0.00000000E+00
  0.00000000E+00  0.00000000E+00  0.00000000E+00
  0.00000000E+00  0.00000000E+00  0.00000000E+00
  0.00000000E+00  0.00000000E+00  0.00000000E+00
  0.00000000E+00  0.00000000E+00  0.00000000E+00
  0.00000000E+00  0.00000000E+00  0.00000000E+00
  0.00000000E+00  0.00000000E+00  0.00000000E+00
  0.00000000E+00  0.00000000E+00  0.00000000E+00
  0.00000000E+00  0.00000000E+00  0.00000000E+00
  0.00000000E+00  0.00000000E+00  0.00000000E+00
  0.00000000E+00  0.00000000E+00  0.00000000E+00
  0.00000000E+00  0.00000000E+00  0.00000000E+00
  0.00000000E+00  0.00000000E+00  0.00000000E+00
  0.00000000E+00  0.00000000E+00  0.00000000E+00
  0.00000000E+00  0.00000000E+00  0.00000000E+00
  0.00000000E+00  0.00000000E+00  0.00000000E+00
  0.00000000E+00  0.00000000E+00  0.00000000E+00
  0.00000000E+00  0.00000000E+00  0.00000000E+00
  0.00000000E+00  0.00000000E+00  0.00000000E+00
  0.00000000E+00  0.00000000E+00  0.00000000E+00
  0.00000000E+00  0.00000000E+00  0.00000000E+00
  0.00000000E+00  0.00000000E+00  0.00000000E+00
  0.00000000E+00  0.00000000E+00  0.00000000E+00
  0.00000000E+00  0.00000000E+00  0.00000000E+00
  0.00000000E+00  0.00000000E+00  0.00000000E+00
  0.00000000E+00  0.00000000E+00  0.00000000E+00
  0.00000000E+00  0.00000000E+00  0.00000000E+00
  0.00000000E+00  0.00000000E+00  0.00000000E+00
  0.00000000E+00  0.00000000E+00  0.00000000E+00
  0.00000000E+00  0.00000000E+00  0.00000000E+00
  0.00000000E+00  0.00000000E+00  0.00000000E+00
  0.00000000E+00  0.00000000E+00  0.00000000E+00
  0.00000000E+00  0.00000000E+00  0.00000000E+00
  0.00000000E+00  0.00000000E+00  0.00000000E+00
  0.00000000E+00  0.00000000E+00  0.00000000E+00
  0.00000000E+00  0.00000000E+00  0.00000000E+00
