Pt111                                   
   1.00000000000000     
    11.1599999990000001    0.0000000000000000    0.0000000000000000
     5.5799999999000001    9.6648433740000037    0.0000000000000000
     0.0000000000000000    0.0000000000000000   22.0000000000000000
   Pt
    80
Direct
  0.7844285979969923  0.8693641709236510  0.3277274739922678
  0.0344491962657340  0.8693438852270462  0.3277493740047471
  0.0343494028019451  0.6194452472122867  0.3278716617737671
  0.7874635770519197  0.8673889342519842  0.0217817540672877
  0.0369039185712122  0.8681209364599756  0.0219380646993065
  0.0372089304219012  0.6176234070524129  0.0220437856212639
  0.6194850800528497  0.2017381177894421  0.1255108009130766
  0.3694946186001273  0.9517446249992435  0.1255303530468809
  0.0347642025542180  0.3694871595996764  0.3278527875592366
  0.0370287718658242  0.3676012948846404  0.0220738952367562
  0.8694533717250860  0.2019061435323604  0.1254481768052171
  0.9517393657712123  0.5357576080116486  0.2267252863648701
  0.2847229376991793  0.1193415168658842  0.3278369263317125
  0.5344401195936295  0.6193989755252320  0.3277953903841843
  0.2847447585057747  0.3694006131645267  0.3279459118314904
  0.2876023430907424  0.1176072581058812  0.0219911206125637
  0.5367960557838914  0.6176868648222410  0.0218969956452801
  0.2869476318709079  0.3679096808996649  0.0220519038660948
  0.6193062717515989  0.9517408507180726  0.1254443523612621
  0.7015704254041615  0.7855719863838190  0.2265982636758788
  0.8692425852879379  0.7017636494789027  0.1255208504913684
  0.6192754204014724  0.4518762582020086  0.1255288801056221
  0.2844607939043197  0.8694586965658347  0.3278344871835825
  0.2871818341096064  0.8676401971000840  0.0218936289021664
  0.6190283787511378  0.7018389814468264  0.1254338009565566
  0.2019620424524478  0.0358154134504716  0.2267070302656199
  0.8673282668304876  0.9529977364660268  0.4313197647954063
  0.1174881987801194  0.4533003165799855  0.4316076138907236
  0.1167868314363723  0.9530835564029416  0.4314115341143528
  0.8677555928951027  0.4526173368508256  0.4314341724005746
  0.3667441284327203  0.9531681921415444  0.4315257745130286
  0.8672921467362037  0.2031605478126743  0.4314092286740228
  0.1173819276180919  0.2032089029082114  0.4314600730815304
  0.6172973855547584  0.9530270172083362  0.4313817741978562
  0.8668989361818270  0.7029465414226268  0.4314648821935170
  0.3674641974448072  0.2027478573346102  0.4315381011354908
  0.3674557725806670  0.7031430760275105  0.4315599066670003
  0.6173707330738741  0.4527551758970322  0.4314668203592003
  0.1173043916817212  0.7028566469903740  0.4314958893560166
  0.6172424301116828  0.2030432616317198  0.4313459966384765
  0.5345673269087254  0.3694385047750953  0.3277669954104989
  0.5375756556503992  0.3672664199948776  0.0219042253339169
  0.5347310198291094  0.1192816863397609  0.3277588600726875
  0.5372883261850537  0.1177018121723588  0.0218628131378825
  0.8692491279358902  0.4519191292672372  0.1255880297330693
  0.1193197257881440  0.4518318627877298  0.1256672251265504
  0.0346165006869149  0.1194257080126960  0.3277899874571973
  0.0373829550619944  0.1176937196224628  0.0219013216774130
  0.1193614845267338  0.9519178075162837  0.1255518159231037
  0.3671818940706856  0.4531236848082004  0.4316295639633252
  0.4517079654456752  0.5357440708290248  0.2267227161321470
  0.6173312769250004  0.7028265589508174  0.4314614790399022
  0.3694565376349948  0.2019280643876048  0.1256300756814092
  0.1195835971408087  0.2018115596707487  0.1255983173859876
  0.9517656680123397  0.7857220629981473  0.2266871155402505
  0.7844085003413531  0.6192852835275948  0.3277451927587360
  0.2844583218909633  0.6194390756297187  0.3278799007593904
  0.7869423602719794  0.6177860298234613  0.0218795503342522
  0.2870662091029538  0.6176174985853606  0.0219679548370329
  0.3690460114169451  0.7018993896917306  0.1255658642121273
  0.3694378040763696  0.4518082110490128  0.1256101804617159
  0.2020263723835578  0.2856923428082133  0.2268122384288178
  0.7846079441108723  0.3693737744618637  0.3277552884471529
  0.7871748366281724  0.3678317328495755  0.0218155082699278
  0.9518920305536704  0.0357390587641518  0.2266314070560856
  0.4517662364573922  0.7856780104098881  0.2266695305464846
  0.7017205050009280  0.5357786098155342  0.2266447179248153
  0.2016935789988033  0.7856981888850525  0.2267306066374968
  0.4519124369111759  0.0355822096493633  0.2266853919953562
  0.1191611970404959  0.7019593053455717  0.1255986884541272
  0.7019026763480454  0.0356371795353652  0.2265796423555706
  0.7845964567666219  0.1194226364205960  0.3276711190667334
  0.5344374468993248  0.8693149867142133  0.3278138494025319
  0.7873278505139013  0.1176277620702839  0.0218150914441946
  0.5373771247819642  0.8677489017727159  0.0217659130527357
  0.2018500151416998  0.5358312128205793  0.2267860484225576
  0.9520521689476231  0.2857310050376707  0.2267232545124324
  0.8693058877182317  0.9518715660251045  0.1255099655696894
  0.7019444214602658  0.2856320625622840  0.2265773023902465
  0.4520996827899759  0.2856747542637973  0.2267408083291731
 
  0.00000000E+00  0.00000000E+00  0.00000000E+00
  0.00000000E+00  0.00000000E+00  0.00000000E+00
  0.00000000E+00  0.00000000E+00  0.00000000E+00
  0.00000000E+00  0.00000000E+00  0.00000000E+00
  0.00000000E+00  0.00000000E+00  0.00000000E+00
  0.00000000E+00  0.00000000E+00  0.00000000E+00
  0.00000000E+00  0.00000000E+00  0.00000000E+00
  0.00000000E+00  0.00000000E+00  0.00000000E+00
  0.00000000E+00  0.00000000E+00  0.00000000E+00
  0.00000000E+00  0.00000000E+00  0.00000000E+00
  0.00000000E+00  0.00000000E+00  0.00000000E+00
  0.00000000E+00  0.00000000E+00  0.00000000E+00
  0.00000000E+00  0.00000000E+00  0.00000000E+00
  0.00000000E+00  0.00000000E+00  0.00000000E+00
  0.00000000E+00  0.00000000E+00  0.00000000E+00
  0.00000000E+00  0.00000000E+00  0.00000000E+00
  0.00000000E+00  0.00000000E+00  0.00000000E+00
  0.00000000E+00  0.00000000E+00  0.00000000E+00
  0.00000000E+00  0.00000000E+00  0.00000000E+00
  0.00000000E+00  0.00000000E+00  0.00000000E+00
  0.00000000E+00  0.00000000E+00  0.00000000E+00
  0.00000000E+00  0.00000000E+00  0.00000000E+00
  0.00000000E+00  0.00000000E+00  0.00000000E+00
  0.00000000E+00  0.00000000E+00  0.00000000E+00
  0.00000000E+00  0.00000000E+00  0.00000000E+00
  0.00000000E+00  0.00000000E+00  0.00000000E+00
  0.00000000E+00  0.00000000E+00  0.00000000E+00
  0.00000000E+00  0.00000000E+00  0.00000000E+00
  0.00000000E+00  0.00000000E+00  0.00000000E+00
  0.00000000E+00  0.00000000E+00  0.00000000E+00
  0.00000000E+00  0.00000000E+00  0.00000000E+00
  0.00000000E+00  0.00000000E+00  0.00000000E+00
  0.00000000E+00  0.00000000E+00  0.00000000E+00
  0.00000000E+00  0.00000000E+00  0.00000000E+00
  0.00000000E+00  0.00000000E+00  0.00000000E+00
  0.00000000E+00  0.00000000E+00  0.00000000E+00
  0.00000000E+00  0.00000000E+00  0.00000000E+00
  0.00000000E+00  0.00000000E+00  0.00000000E+00
  0.00000000E+00  0.00000000E+00  0.00000000E+00
  0.00000000E+00  0.00000000E+00  0.00000000E+00
  0.00000000E+00  0.00000000E+00  0.00000000E+00
  0.00000000E+00  0.00000000E+00  0.00000000E+00
  0.00000000E+00  0.00000000E+00  0.00000000E+00
  0.00000000E+00  0.00000000E+00  0.00000000E+00
  0.00000000E+00  0.00000000E+00  0.00000000E+00
  0.00000000E+00  0.00000000E+00  0.00000000E+00
  0.00000000E+00  0.00000000E+00  0.00000000E+00
  0.00000000E+00  0.00000000E+00  0.00000000E+00
  0.00000000E+00  0.00000000E+00  0.00000000E+00
  0.00000000E+00  0.00000000E+00  0.00000000E+00
  0.00000000E+00  0.00000000E+00  0.00000000E+00
  0.00000000E+00  0.00000000E+00  0.00000000E+00
  0.00000000E+00  0.00000000E+00  0.00000000E+00
  0.00000000E+00  0.00000000E+00  0.00000000E+00
  0.00000000E+00  0.00000000E+00  0.00000000E+00
  0.00000000E+00  0.00000000E+00  0.00000000E+00
  0.00000000E+00  0.00000000E+00  0.00000000E+00
  0.00000000E+00  0.00000000E+00  0.00000000E+00
  0.00000000E+00  0.00000000E+00  0.00000000E+00
  0.00000000E+00  0.00000000E+00  0.00000000E+00
  0.00000000E+00  0.00000000E+00  0.00000000E+00
  0.00000000E+00  0.00000000E+00  0.00000000E+00
  0.00000000E+00  0.00000000E+00  0.00000000E+00
  0.00000000E+00  0.00000000E+00  0.00000000E+00
  0.00000000E+00  0.00000000E+00  0.00000000E+00
  0.00000000E+00  0.00000000E+00  0.00000000E+00
  0.00000000E+00  0.00000000E+00  0.00000000E+00
  0.00000000E+00  0.00000000E+00  0.00000000E+00
  0.00000000E+00  0.00000000E+00  0.00000000E+00
  0.00000000E+00  0.00000000E+00  0.00000000E+00
  0.00000000E+00  0.00000000E+00  0.00000000E+00
  0.00000000E+00  0.00000000E+00  0.00000000E+00
  0.00000000E+00  0.00000000E+00  0.00000000E+00
  0.00000000E+00  0.00000000E+00  0.00000000E+00
  0.00000000E+00  0.00000000E+00  0.00000000E+00
  0.00000000E+00  0.00000000E+00  0.00000000E+00
  0.00000000E+00  0.00000000E+00  0.00000000E+00
  0.00000000E+00  0.00000000E+00  0.00000000E+00
  0.00000000E+00  0.00000000E+00  0.00000000E+00
  0.00000000E+00  0.00000000E+00  0.00000000E+00
