PtM\(2)                                 
   1.00000000000000     
    10.5600004195999997    0.0000000000000000    0.0000000000000000
     5.2800002097999998    9.1452286273999999    0.0000000000000000
     0.0000000000000000    0.0000000000000000   22.0000000000000000
   Cu   Pt   H 
    64    16     2
Selective dynamics
Direct
  0.7851208485614833  0.8692194773658670  0.3146264066181814   F   F   F
  0.0353909823106449  0.8690709559504555  0.3147173856499990   F   F   F
  0.0351511101318778  0.6193659041316195  0.3147087301772729   F   F   F
  0.7862489977741944  0.8683580306463838  0.0449029301409070   F   F   F
  0.0363259342032549  0.8683109594885678  0.0449037755136388   F   F   F
  0.0362926956164600  0.6183453800441185  0.0449040668727250   F   F   F
  0.6190059373410435  0.2020352778895287  0.1352781702363615   F   F   F
  0.3690287182127392  0.9520179664196391  0.1352793628454521   F   F   F
  0.0350579355351641  0.3693979701588290  0.3146582286772741   F   F   F
  0.0363223169521234  0.3683400816035913  0.0449042535590891   F   F   F
  0.8690354394784165  0.2020170446548164  0.1352869309954556   F   F   F
  0.9519737745058876  0.5358016061095583  0.2250306665227271   F   F   F
  0.2852964816162213  0.1191679280531943  0.3146576464363662   F   F   F
  0.5353322259369335  0.6194299515954853  0.3141397814045419   F   F   F
  0.2851541762052179  0.3692682080776066  0.3146230036363633   F   F   F
  0.2862743719031045  0.1183406332300407  0.0449050022409097   F   F   F
  0.5363161573872759  0.6183452978263801  0.0448859087045435   F   F   F
  0.2863548261650166  0.3683290234218717  0.0448970020954533   F   F   F
  0.6190115951470077  0.9519934922693309  0.1352729054090887   F   F   F
  0.7020563393764121  0.7856646308844333  0.2250248260000021   F   F   F
  0.8690562341340424  0.7019773347563785  0.1352801621909094   F   F   F
  0.6190154306749704  0.4520216268748740  0.1352790409500031   F   F   F
  0.2849757542314961  0.8697766247273577  0.3145200175363669   F   F   F
  0.2863313801676881  0.8683468335616311  0.0448881439999980   F   F   F
  0.6190297104958304  0.7020185649120592  0.1352794445545484   F   F   F
  0.2019034283217920  0.0357556629169764  0.2249844109727306   F   F   F
  0.5350175538030371  0.3690154549104392  0.3144558334227270   F   F   F
  0.5362909971988969  0.3683687437629146  0.0448882480863659   F   F   F
  0.5352570059964563  0.1192626343678498  0.3147051166727266   F   F   F
  0.5363149216246015  0.1183187474021210  0.0448927739090905   F   F   F
  0.8690821575080889  0.4519764673149709  0.1352776201363639   F   F   F
  0.1190566022182153  0.4520153678952070  0.1352898458409086   F   F   F
  0.0350739327905174  0.1191778852673551  0.3146756110227287   F   F   F
  0.0362816687696892  0.1183447565605249  0.0449075346136354   F   F   F
  0.1190601259472075  0.9519896514796216  0.1352788457909071   F   F   F
  0.4519415038092944  0.5355546906969408  0.2248912285136342   F   F   F
  0.3690244471336612  0.2020149772051383  0.1352856928499975   F   F   F
  0.1190303050251416  0.2020411246214309  0.1352914691636329   F   F   F
  0.9521618742273219  0.7856149093390812  0.2250214821590930   F   F   F
  0.7851575284840067  0.6191276537620851  0.3146839144045472   F   F   F
  0.2849196772102829  0.6191269036769569  0.3144530703999990   F   F   F
  0.7862585535986497  0.6183514669231087  0.0448983113227257   F   F   F
  0.2863148512113511  0.6183444775079039  0.0448935090136331   F   F   F
  0.3690604108637601  0.7020085334733963  0.1352746690909115   F   F   F
  0.3690289842654053  0.4520183087839627  0.1352848660681829   F   F   F
  0.2020566065811522  0.2856586172895632  0.2250675081772755   F   F   F
  0.7856714427216573  0.3690737439507359  0.3145283092227302   F   F   F
  0.7862455880820818  0.3683649368487991  0.0448978039272703   F   F   F
  0.9519459997476218  0.0355567140471180  0.2250578907590892   F   F   F
  0.4519070290128440  0.7861124534995767  0.2248485041318204   F   F   F
  0.7025031760150640  0.5355138203901149  0.2248434623272715   F   F   F
  0.2019820541571491  0.7857869108126465  0.2249508125727289   F   F   F
  0.4521924902834371  0.0355853693941484  0.2250303443318202   F   F   F
  0.1190753377591065  0.7019761661032575  0.1352883550727242   F   F   F
  0.7020002104531002  0.0357710068089361  0.2250166196772696   F   F   F
  0.7849667094630419  0.1194875297404892  0.3147149694363662   F   F   F
  0.5350310486301311  0.8692538282949442  0.3146749852863664   F   F   F
  0.7863001972648362  0.1183328961790693  0.0449101627227293   F   F   F
  0.5362660313703174  0.8683264854426795  0.0448757432500031   F   F   F
  0.2019109005004722  0.5356363940561906  0.2249561115590879   F   F   F
  0.9521175481272124  0.2855230582510160  0.2249933134363644   F   F   F
  0.8690701809434032  0.9519851025282833  0.1352848888045486   F   F   F
  0.7021623796184429  0.2855898277244648  0.2249519487136382   F   F   F
  0.4520319921440290  0.2855183472698286  0.2249543649454537   F   F   F
  0.8680003191627392  0.9531279898223985  0.4137177280090896   F   F   F
  0.1179356132746676  0.4531325276641169  0.4136777599499979   F   F   F
  0.1180187817757243  0.9530365556402600  0.4137382051727272   F   F   F
  0.8678218529062960  0.4532105281416392  0.4138005815136339   F   F   F
  0.3680792157445651  0.9529646701438139  0.4137943483000015   F   F   F
  0.8678974951966936  0.2031136142878580  0.4137469304590908   F   F   F
  0.1178811531302060  0.2030455584058970  0.4137118119363663   F   F   F
  0.6178951407489564  0.9531113199165659  0.4137022622090925   F   F   F
  0.8679561350862528  0.7030359186359547  0.4137069237181805   F   F   F
  0.3679955429887158  0.2030772617467065  0.4136770577318174   F   F   F
  0.3679583809543701  0.7030677689058464  0.4129689290863610   F   F   F
  0.6179936033272071  0.4530346565734646  0.4129542631272756   F   F   F
  0.1180598601374001  0.7029712274484439  0.4138508910681793   F   F   F
  0.6178265080179202  0.2031814922847133  0.4138549842181831   F   F   F
  0.3679679398679738  0.4530959598741120  0.4135928461500029   F   F   F
  0.6179575035521694  0.7030705083124857  0.4135953222318207   F   F   F
  0.4740294189472749  0.5554702452796079  0.5486558291545478   T   T   T
  0.5165284640780854  0.5952143668985100  0.5481745525000001   T   T   T
 
  0.00000000E+00  0.00000000E+00  0.00000000E+00
  0.00000000E+00  0.00000000E+00  0.00000000E+00
  0.00000000E+00  0.00000000E+00  0.00000000E+00
  0.00000000E+00  0.00000000E+00  0.00000000E+00
  0.00000000E+00  0.00000000E+00  0.00000000E+00
  0.00000000E+00  0.00000000E+00  0.00000000E+00
  0.00000000E+00  0.00000000E+00  0.00000000E+00
  0.00000000E+00  0.00000000E+00  0.00000000E+00
  0.00000000E+00  0.00000000E+00  0.00000000E+00
  0.00000000E+00  0.00000000E+00  0.00000000E+00
  0.00000000E+00  0.00000000E+00  0.00000000E+00
  0.00000000E+00  0.00000000E+00  0.00000000E+00
  0.00000000E+00  0.00000000E+00  0.00000000E+00
  0.00000000E+00  0.00000000E+00  0.00000000E+00
  0.00000000E+00  0.00000000E+00  0.00000000E+00
  0.00000000E+00  0.00000000E+00  0.00000000E+00
  0.00000000E+00  0.00000000E+00  0.00000000E+00
  0.00000000E+00  0.00000000E+00  0.00000000E+00
  0.00000000E+00  0.00000000E+00  0.00000000E+00
  0.00000000E+00  0.00000000E+00  0.00000000E+00
  0.00000000E+00  0.00000000E+00  0.00000000E+00
  0.00000000E+00  0.00000000E+00  0.00000000E+00
  0.00000000E+00  0.00000000E+00  0.00000000E+00
  0.00000000E+00  0.00000000E+00  0.00000000E+00
  0.00000000E+00  0.00000000E+00  0.00000000E+00
  0.00000000E+00  0.00000000E+00  0.00000000E+00
  0.00000000E+00  0.00000000E+00  0.00000000E+00
  0.00000000E+00  0.00000000E+00  0.00000000E+00
  0.00000000E+00  0.00000000E+00  0.00000000E+00
  0.00000000E+00  0.00000000E+00  0.00000000E+00
  0.00000000E+00  0.00000000E+00  0.00000000E+00
  0.00000000E+00  0.00000000E+00  0.00000000E+00
  0.00000000E+00  0.00000000E+00  0.00000000E+00
  0.00000000E+00  0.00000000E+00  0.00000000E+00
  0.00000000E+00  0.00000000E+00  0.00000000E+00
  0.00000000E+00  0.00000000E+00  0.00000000E+00
  0.00000000E+00  0.00000000E+00  0.00000000E+00
  0.00000000E+00  0.00000000E+00  0.00000000E+00
  0.00000000E+00  0.00000000E+00  0.00000000E+00
  0.00000000E+00  0.00000000E+00  0.00000000E+00
  0.00000000E+00  0.00000000E+00  0.00000000E+00
  0.00000000E+00  0.00000000E+00  0.00000000E+00
  0.00000000E+00  0.00000000E+00  0.00000000E+00
  0.00000000E+00  0.00000000E+00  0.00000000E+00
  0.00000000E+00  0.00000000E+00  0.00000000E+00
  0.00000000E+00  0.00000000E+00  0.00000000E+00
  0.00000000E+00  0.00000000E+00  0.00000000E+00
  0.00000000E+00  0.00000000E+00  0.00000000E+00
  0.00000000E+00  0.00000000E+00  0.00000000E+00
  0.00000000E+00  0.00000000E+00  0.00000000E+00
  0.00000000E+00  0.00000000E+00  0.00000000E+00
  0.00000000E+00  0.00000000E+00  0.00000000E+00
  0.00000000E+00  0.00000000E+00  0.00000000E+00
  0.00000000E+00  0.00000000E+00  0.00000000E+00
  0.00000000E+00  0.00000000E+00  0.00000000E+00
  0.00000000E+00  0.00000000E+00  0.00000000E+00
  0.00000000E+00  0.00000000E+00  0.00000000E+00
  0.00000000E+00  0.00000000E+00  0.00000000E+00
  0.00000000E+00  0.00000000E+00  0.00000000E+00
  0.00000000E+00  0.00000000E+00  0.00000000E+00
  0.00000000E+00  0.00000000E+00  0.00000000E+00
  0.00000000E+00  0.00000000E+00  0.00000000E+00
  0.00000000E+00  0.00000000E+00  0.00000000E+00
  0.00000000E+00  0.00000000E+00  0.00000000E+00
  0.00000000E+00  0.00000000E+00  0.00000000E+00
  0.00000000E+00  0.00000000E+00  0.00000000E+00
  0.00000000E+00  0.00000000E+00  0.00000000E+00
  0.00000000E+00  0.00000000E+00  0.00000000E+00
  0.00000000E+00  0.00000000E+00  0.00000000E+00
  0.00000000E+00  0.00000000E+00  0.00000000E+00
  0.00000000E+00  0.00000000E+00  0.00000000E+00
  0.00000000E+00  0.00000000E+00  0.00000000E+00
  0.00000000E+00  0.00000000E+00  0.00000000E+00
  0.00000000E+00  0.00000000E+00  0.00000000E+00
  0.00000000E+00  0.00000000E+00  0.00000000E+00
  0.00000000E+00  0.00000000E+00  0.00000000E+00
  0.00000000E+00  0.00000000E+00  0.00000000E+00
  0.00000000E+00  0.00000000E+00  0.00000000E+00
  0.00000000E+00  0.00000000E+00  0.00000000E+00
  0.00000000E+00  0.00000000E+00  0.00000000E+00
  0.00000000E+00  0.00000000E+00  0.00000000E+00
  0.00000000E+00  0.00000000E+00  0.00000000E+00
