Pt111\(1\1\1)\(2)                       
   1.00000000000000     
    10.5600004195999997    0.0000000000000000    0.0000000000000000
    -5.2800002097999998    9.1452286273999999    0.0000000000000000
     0.0000000000000000    0.0000000000000000   20.0000000000000000
   Pt
    64
Selective dynamics
Direct
  0.9999984446215961  0.0000015553793773  0.0557922949150012   F   F   F
  0.3334394259185935  0.1671847095704261  0.1782014930058321   T   T   T
  0.1669792667829103  0.3336177736744250  0.3005013490206191   T   T   T
  0.0001526545607824  0.0001982434879351  0.4191305680546401   T   T   T
  0.9999984416169312  0.2500015483757210  0.0557922949150012   F   F   F
  0.3333339332433658  0.4166696178444816  0.1806251283732348   T   T   T
  0.1670655488252998  0.0841215559306538  0.2981418131515580   T   T   T
 -0.0000824977288714  0.2501424145330995  0.4191521339175954   T   T   T
  0.2499984416169312  0.2500015483757210  0.0557922949150012   F   F   F
  0.0837497877523762  0.4165868822474593  0.1781932072996205   T   T   T
  0.4168007014809375  0.0835802503519450  0.2970967061158473   T   T   T
  0.2500583014865486  0.2501086815934953  0.4228506971104894   T   T   T
  0.2499984446215961  0.0000015553793773  0.0557922949150012   F   F   F
  0.0837421875714227  0.1671859030492293  0.1782006486968622   T   T   T
  0.4166444260386558  0.3336182467481889  0.3005021727875637   T   T   T
  0.2500564146856063  0.0001991444228039  0.4191301900485194   T   T   T
  0.4999984446215961  0.0000015553793773  0.0557922949150012   F   F   F
  0.8333982221574634  0.1667234390262596  0.1773966191956608   T   T   T
  0.6667116571744984  0.3334845761852897  0.2970811032493260   T   T   T
  0.5000325895830562  0.0002138762993084  0.4191651673975861   T   T   T
  0.4999984296188273  0.2500015483757210  0.0557922949150012   F   F   F
  0.8333671818795884  0.4167397237399854  0.1768512617438254   T   T   T
  0.6667620255348586  0.0835195987837375  0.2977938879031950   T   T   T
  0.5002354899664128  0.2501432716670455  0.4191553010776237   T   T   T
  0.7499984076207227  0.2500015483757210  0.0557922949150012   F   F   F
  0.5828346253185809  0.4165865878619520  0.1781945643917696   T   T   T
  0.9167839166760797  0.0835775512903971  0.2970948823101331   T   T   T
  0.7501806844278091  0.2503494214359918  0.4191784768093907   T   T   T
  0.7499984216197078  0.0000015553793773  0.0557922949150012   F   F   F
  0.5833201910080921  0.1667214634080902  0.1773963135239724   T   T   T
  0.9167760818605637  0.3334820574774394  0.2970806211837167   T   T   T
  0.7501912880951660  0.0002165678251982  0.4191643223362972   T   T   T
  0.9999984376190483  0.5000015423780582  0.0557922949150012   F   F   F
  0.3334410202200446  0.6662792429101045  0.1781928110501994   T   T   T
  0.1669840554705825  0.8336385834007931  0.2968047566742836   T   T   T
  0.0001652385676485  0.5003185037861660  0.4191095285413916   T   T   T
  0.9999984326223199  0.7500015093827130  0.0557922949150012   F   F   F
  0.3333052971237001  0.9166699342834176  0.1768569432709286   T   T   T
  0.1670669205941485  0.5832254139065679  0.2981076882188727   T   T   T
  0.0001105862348156  0.7502111418933897  0.4175201175272217   T   T   T
  0.2499984326223199  0.7500015093827130  0.0557922949150012   F   F   F
  0.0834720730135476  0.9169489049268666  0.1771696954233393   T   T   T
  0.4166520353759096  0.5832952456648062  0.3004826917610790   T   T   T
  0.2500695491728108  0.7502134718135074  0.4191567702492949   T   T   T
  0.2499984376190483  0.5000015423780582  0.0557922949150012   F   F   F
  0.0834725837869086  0.6665732400854183  0.1771683739818771   T   T   T
  0.4167919599503717  0.8335080341163440  0.2970855261838070   T   T   T
  0.2500787636148954  0.5003007220420437  0.4227452045334374   T   T   T
  0.4999984376190483  0.5000015423780582  0.0557922949150012   F   F   F
  0.8330951037342035  0.6665726080589202  0.1771682569245533   T   T   T
  0.6667253650706736  0.8335100827807114  0.2970851863313849   T   T   T
  0.5002345517340876  0.5003003471672661  0.4227491161336368   T   T   T
  0.4999984326223199  0.7500015093827130  0.0557922949150012   F   F   F
  0.8333589184189312  0.9166699248751656  0.1768558729272492   T   T   T
  0.6661685895813227  0.5832271298430813  0.2981086086997414   T   T   T
  0.5002502352296287  0.7504844051524266  0.4191378487241029   T   T   T
  0.7499984106242152  0.7500015093827130  0.0557922949150012   F   F   F
  0.5833154059971928  0.9166365692818029  0.1773979558645796   T   T   T
  0.9166586429146505  0.5833079691636278  0.2968016811270051   T   T   T
  0.7501585431655104  0.7502132901061461  0.4191545641283639   T   T   T
  0.7499983926190481  0.5000015423780582  0.0557922949150012   F   F   F
  0.5828324237446639  0.6662801789539674  0.1781930119550142   T   T   T
  0.9166653950070964  0.8336383911013425  0.2968017961006206   T   T   T
  0.7501636500049986  0.5003169296815232  0.4191093056850791   T   T   T
 
  0.00000000E+00  0.00000000E+00  0.00000000E+00
  0.00000000E+00  0.00000000E+00  0.00000000E+00
  0.00000000E+00  0.00000000E+00  0.00000000E+00
  0.00000000E+00  0.00000000E+00  0.00000000E+00
  0.00000000E+00  0.00000000E+00  0.00000000E+00
  0.00000000E+00  0.00000000E+00  0.00000000E+00
  0.00000000E+00  0.00000000E+00  0.00000000E+00
  0.00000000E+00  0.00000000E+00  0.00000000E+00
  0.00000000E+00  0.00000000E+00  0.00000000E+00
  0.00000000E+00  0.00000000E+00  0.00000000E+00
  0.00000000E+00  0.00000000E+00  0.00000000E+00
  0.00000000E+00  0.00000000E+00  0.00000000E+00
  0.00000000E+00  0.00000000E+00  0.00000000E+00
  0.00000000E+00  0.00000000E+00  0.00000000E+00
  0.00000000E+00  0.00000000E+00  0.00000000E+00
  0.00000000E+00  0.00000000E+00  0.00000000E+00
  0.00000000E+00  0.00000000E+00  0.00000000E+00
  0.00000000E+00  0.00000000E+00  0.00000000E+00
  0.00000000E+00  0.00000000E+00  0.00000000E+00
  0.00000000E+00  0.00000000E+00  0.00000000E+00
  0.00000000E+00  0.00000000E+00  0.00000000E+00
  0.00000000E+00  0.00000000E+00  0.00000000E+00
  0.00000000E+00  0.00000000E+00  0.00000000E+00
  0.00000000E+00  0.00000000E+00  0.00000000E+00
  0.00000000E+00  0.00000000E+00  0.00000000E+00
  0.00000000E+00  0.00000000E+00  0.00000000E+00
  0.00000000E+00  0.00000000E+00  0.00000000E+00
  0.00000000E+00  0.00000000E+00  0.00000000E+00
  0.00000000E+00  0.00000000E+00  0.00000000E+00
  0.00000000E+00  0.00000000E+00  0.00000000E+00
  0.00000000E+00  0.00000000E+00  0.00000000E+00
  0.00000000E+00  0.00000000E+00  0.00000000E+00
  0.00000000E+00  0.00000000E+00  0.00000000E+00
  0.00000000E+00  0.00000000E+00  0.00000000E+00
  0.00000000E+00  0.00000000E+00  0.00000000E+00
  0.00000000E+00  0.00000000E+00  0.00000000E+00
  0.00000000E+00  0.00000000E+00  0.00000000E+00
  0.00000000E+00  0.00000000E+00  0.00000000E+00
  0.00000000E+00  0.00000000E+00  0.00000000E+00
  0.00000000E+00  0.00000000E+00  0.00000000E+00
  0.00000000E+00  0.00000000E+00  0.00000000E+00
  0.00000000E+00  0.00000000E+00  0.00000000E+00
  0.00000000E+00  0.00000000E+00  0.00000000E+00
  0.00000000E+00  0.00000000E+00  0.00000000E+00
  0.00000000E+00  0.00000000E+00  0.00000000E+00
  0.00000000E+00  0.00000000E+00  0.00000000E+00
  0.00000000E+00  0.00000000E+00  0.00000000E+00
  0.00000000E+00  0.00000000E+00  0.00000000E+00
  0.00000000E+00  0.00000000E+00  0.00000000E+00
  0.00000000E+00  0.00000000E+00  0.00000000E+00
  0.00000000E+00  0.00000000E+00  0.00000000E+00
  0.00000000E+00  0.00000000E+00  0.00000000E+00
  0.00000000E+00  0.00000000E+00  0.00000000E+00
  0.00000000E+00  0.00000000E+00  0.00000000E+00
  0.00000000E+00  0.00000000E+00  0.00000000E+00
  0.00000000E+00  0.00000000E+00  0.00000000E+00
  0.00000000E+00  0.00000000E+00  0.00000000E+00
  0.00000000E+00  0.00000000E+00  0.00000000E+00
  0.00000000E+00  0.00000000E+00  0.00000000E+00
  0.00000000E+00  0.00000000E+00  0.00000000E+00
  0.00000000E+00  0.00000000E+00  0.00000000E+00
  0.00000000E+00  0.00000000E+00  0.00000000E+00
  0.00000000E+00  0.00000000E+00  0.00000000E+00
  0.00000000E+00  0.00000000E+00  0.00000000E+00
