Pt111                                   
   1.00000000000000     
    10.6599999990000001    0.0000000000000000    0.0000000000000000
     5.3299999237000000    9.2318306721900001    0.0000000000000000
     0.0000000000000000    0.0000000000000000   22.0000000000000000
   Pt   H 
    80     1
Selective dynamics
Direct
  0.7836099439945912  0.8704445450166247  0.3347548986628368   T   T   T
  0.0337950025054425  0.8706062263630159  0.3337973576751736   T   T   T
  0.0338709788043658  0.6201588252417807  0.3340836355258929   T   T   T
  0.7871968569144130  0.8678174004679278  0.0092073416590921   F   F   F
  0.0374273649983081  0.8675423156564577  0.0093889133000005   F   F   F
  0.0373176935367070  0.6176401968221299  0.0095661226863655   F   F   F
  0.6196797328421724  0.2016481588757699  0.1189840460636375   F   F   F
  0.3696708849106543  0.9515954455776452  0.1191178650863662   F   F   F
  0.0337185780354332  0.3702293958616849  0.3345244004866430   T   T   T
  0.0374762302048026  0.3676261562859580  0.0096128681636358   F   F   F
  0.8695792018672606  0.2015810403461984  0.1189545896772728   F   F   F
  0.9516924992799431  0.5356279822970649  0.2269001822948482   T   T   T
  0.2834268371174389  0.1206486885543967  0.3342979531682246   T   T   T
  0.5331845660746808  0.6199652820655146  0.3366207716029308   T   T   T
  0.2842315771756319  0.3712125081620954  0.3357319678930253   T   T   T
  0.2871609522117851  0.1177360353644943  0.0095588718727271   F   F   F
  0.5374824719788336  0.6176300892060667  0.0093997406090907   F   F   F
  0.2873802916428474  0.3675473272079728  0.0096688271636367   F   F   F
  0.6195694962757514  0.9516256221818153  0.1189828490181810   F   F   F
  0.7016595043889140  0.7859220283012931  0.2264579343812443   T   T   T
  0.8697034055831665  0.7016397066957296  0.1190631090000025   F   F   F
  0.6197447662206983  0.4515848386234538  0.1190827025090897   F   F   F
  0.2842280311003620  0.8691705411943502  0.3352194046265424   T   T   T
  0.2872343086455800  0.8677238876609152  0.0094143431818168   F   F   F
  0.6197244080928499  0.7016273387587404  0.1190441478818158   F   F   F
  0.2017132933902559  0.0355544893562083  0.2265894192101143   T   T   T
  0.8661611585532256  0.9547044620885359  0.4445420522680195   T   T   T
  0.1159987411519978  0.4548816185990248  0.4444522075976209   T   T   T
  0.1156575250157843  0.9551578640799292  0.4439185328033233   T   T   T
  0.8661533899916378  0.4548634539110310  0.4439668556409515   T   T   T
  0.3662034343504885  0.9551333983518830  0.4439002623145996   T   T   T
  0.8661055369864812  0.2044674113182623  0.4438071723761539   T   T   T
  0.1161086997372678  0.2048513962449690  0.4432649214998534   T   T   T
  0.6161782185655582  0.9546747346239997  0.4445382893991265   T   T   T
  0.8662843185762483  0.7044479246550708  0.4445761508466646   T   T   T
  0.3665111820321840  0.2044694170016967  0.4442073585828155   T   T   T
  0.3644746974533462  0.7081419876348676  0.4499383979886602   T   T   T
  0.6192512382093156  0.4533217237615261  0.4502179492688967   T   T   T
  0.1147068212260507  0.7054909671515688  0.4425642024372465   T   T   T
  0.6168524230458772  0.2033302126087548  0.4423858167800816   T   T   T
  0.5331207347447773  0.3713754216917735  0.3366140620600362   T   T   T
  0.5372947960817811  0.3677226174789325  0.0093819253272756   F   F   F
  0.5332948688482375  0.1207587441927203  0.3339060876329469   T   T   T
  0.5374473238420379  0.1176091912485688  0.0093150044818202   F   F   F
  0.8696846988469389  0.4516257835685522  0.1191287592363608   F   F   F
  0.1197793908572393  0.4516288178313133  0.1193387429227286   F   F   F
  0.0336235237250335  0.1206523759573201  0.3340686417581864   T   T   T
  0.0373505625088839  0.1176758884749205  0.0093783785499966   F   F   F
  0.1195959748945512  0.9515877582832672  0.1190987585545429   F   F   F
  0.3644537185601138  0.4533627722217872  0.4504971920214302   T   T   T
  0.4516623666875645  0.5358141192228771  0.2296207044853986   T   T   T
  0.6168180278690869  0.7054847955485499  0.4423068042188163   T   T   T
  0.3696916812056585  0.2015118871280919  0.1192535526545484   F   F   F
  0.1196563887681279  0.2016162113010722  0.1192605638681812   F   F   F
  0.9514832248143534  0.7858561652967708  0.2266146812132064   T   T   T
  0.7836329493508316  0.6201592188479808  0.3338109289035032   T   T   T
  0.2844650471355337  0.6199718944579615  0.3368539167601909   T   T   T
  0.7873333839646079  0.6176556799159059  0.0093597256363651   F   F   F
  0.2872270948451074  0.6177044965608331  0.0095870256954527   F   F   F
  0.3697671611811941  0.7016481411658475  0.1191783332909111   F   F   F
  0.3697188660047956  0.4515764782014813  0.1192796041272715   F   F   F
  0.2015836716767154  0.2859793527239063  0.2270311741939963   T   T   T
  0.7821753269147820  0.3712004519772449  0.3351916368142724   T   T   T
  0.7873263210198544  0.3676217871416938  0.0093056947136390   F   F   F
  0.9515908771784964  0.0357721052168358  0.2265692986513486   T   T   T
  0.4516223765881620  0.7855272188818248  0.2268435155607804   T   T   T
  0.7013148714877389  0.5357577980463475  0.2267986135418951   T   T   T
  0.2019064802200603  0.7854613780487156  0.2269413638317062   T   T   T
  0.4515275464167701  0.0358468393015272  0.2267727830086983   T   T   T
  0.1196747434835288  0.7015866554627266  0.1192331675590879   F   F   F
  0.7015766295621901  0.0357506622347401  0.2265711439874494   T   T   T
  0.7836593115720376  0.1207573864623157  0.3337401115544836   T   T   T
  0.5333034582697351  0.8705984930146116  0.3336964581362167   T   T   T
  0.7873356038387911  0.1176961102712966  0.0091661439636397   F   F   F
  0.5373660848227857  0.8675861262520286  0.0092743096500030   F   F   F
  0.2019963655178429  0.5357435553790353  0.2272030887107235   T   T   T
  0.9514634384657512  0.2859072992853271  0.2266604073211056   T   T   T
  0.8696622165394103  0.9516507663171723  0.1189467277181819   F   F   F
  0.7011896847691403  0.2861889470256997  0.2266423792563117   T   T   T
  0.4515226662653902  0.2862548334485169  0.2269078389889927   T   T   T
  0.4512652692147796  0.5349298890804093  0.4961285012376635   T   T   T
 
  0.00000000E+00  0.00000000E+00  0.00000000E+00
  0.00000000E+00  0.00000000E+00  0.00000000E+00
  0.00000000E+00  0.00000000E+00  0.00000000E+00
  0.00000000E+00  0.00000000E+00  0.00000000E+00
  0.00000000E+00  0.00000000E+00  0.00000000E+00
  0.00000000E+00  0.00000000E+00  0.00000000E+00
  0.00000000E+00  0.00000000E+00  0.00000000E+00
  0.00000000E+00  0.00000000E+00  0.00000000E+00
  0.00000000E+00  0.00000000E+00  0.00000000E+00
  0.00000000E+00  0.00000000E+00  0.00000000E+00
  0.00000000E+00  0.00000000E+00  0.00000000E+00
  0.00000000E+00  0.00000000E+00  0.00000000E+00
  0.00000000E+00  0.00000000E+00  0.00000000E+00
  0.00000000E+00  0.00000000E+00  0.00000000E+00
  0.00000000E+00  0.00000000E+00  0.00000000E+00
  0.00000000E+00  0.00000000E+00  0.00000000E+00
  0.00000000E+00  0.00000000E+00  0.00000000E+00
  0.00000000E+00  0.00000000E+00  0.00000000E+00
  0.00000000E+00  0.00000000E+00  0.00000000E+00
  0.00000000E+00  0.00000000E+00  0.00000000E+00
  0.00000000E+00  0.00000000E+00  0.00000000E+00
  0.00000000E+00  0.00000000E+00  0.00000000E+00
  0.00000000E+00  0.00000000E+00  0.00000000E+00
  0.00000000E+00  0.00000000E+00  0.00000000E+00
  0.00000000E+00  0.00000000E+00  0.00000000E+00
  0.00000000E+00  0.00000000E+00  0.00000000E+00
  0.00000000E+00  0.00000000E+00  0.00000000E+00
  0.00000000E+00  0.00000000E+00  0.00000000E+00
  0.00000000E+00  0.00000000E+00  0.00000000E+00
  0.00000000E+00  0.00000000E+00  0.00000000E+00
  0.00000000E+00  0.00000000E+00  0.00000000E+00
  0.00000000E+00  0.00000000E+00  0.00000000E+00
  0.00000000E+00  0.00000000E+00  0.00000000E+00
  0.00000000E+00  0.00000000E+00  0.00000000E+00
  0.00000000E+00  0.00000000E+00  0.00000000E+00
  0.00000000E+00  0.00000000E+00  0.00000000E+00
  0.00000000E+00  0.00000000E+00  0.00000000E+00
  0.00000000E+00  0.00000000E+00  0.00000000E+00
  0.00000000E+00  0.00000000E+00  0.00000000E+00
  0.00000000E+00  0.00000000E+00  0.00000000E+00
  0.00000000E+00  0.00000000E+00  0.00000000E+00
  0.00000000E+00  0.00000000E+00  0.00000000E+00
  0.00000000E+00  0.00000000E+00  0.00000000E+00
  0.00000000E+00  0.00000000E+00  0.00000000E+00
  0.00000000E+00  0.00000000E+00  0.00000000E+00
  0.00000000E+00  0.00000000E+00  0.00000000E+00
  0.00000000E+00  0.00000000E+00  0.00000000E+00
  0.00000000E+00  0.00000000E+00  0.00000000E+00
  0.00000000E+00  0.00000000E+00  0.00000000E+00
  0.00000000E+00  0.00000000E+00  0.00000000E+00
  0.00000000E+00  0.00000000E+00  0.00000000E+00
  0.00000000E+00  0.00000000E+00  0.00000000E+00
  0.00000000E+00  0.00000000E+00  0.00000000E+00
  0.00000000E+00  0.00000000E+00  0.00000000E+00
  0.00000000E+00  0.00000000E+00  0.00000000E+00
  0.00000000E+00  0.00000000E+00  0.00000000E+00
  0.00000000E+00  0.00000000E+00  0.00000000E+00
  0.00000000E+00  0.00000000E+00  0.00000000E+00
  0.00000000E+00  0.00000000E+00  0.00000000E+00
  0.00000000E+00  0.00000000E+00  0.00000000E+00
  0.00000000E+00  0.00000000E+00  0.00000000E+00
  0.00000000E+00  0.00000000E+00  0.00000000E+00
  0.00000000E+00  0.00000000E+00  0.00000000E+00
  0.00000000E+00  0.00000000E+00  0.00000000E+00
  0.00000000E+00  0.00000000E+00  0.00000000E+00
  0.00000000E+00  0.00000000E+00  0.00000000E+00
  0.00000000E+00  0.00000000E+00  0.00000000E+00
  0.00000000E+00  0.00000000E+00  0.00000000E+00
  0.00000000E+00  0.00000000E+00  0.00000000E+00
  0.00000000E+00  0.00000000E+00  0.00000000E+00
  0.00000000E+00  0.00000000E+00  0.00000000E+00
  0.00000000E+00  0.00000000E+00  0.00000000E+00
  0.00000000E+00  0.00000000E+00  0.00000000E+00
  0.00000000E+00  0.00000000E+00  0.00000000E+00
  0.00000000E+00  0.00000000E+00  0.00000000E+00
  0.00000000E+00  0.00000000E+00  0.00000000E+00
  0.00000000E+00  0.00000000E+00  0.00000000E+00
  0.00000000E+00  0.00000000E+00  0.00000000E+00
  0.00000000E+00  0.00000000E+00  0.00000000E+00
  0.00000000E+00  0.00000000E+00  0.00000000E+00
  0.00000000E+00  0.00000000E+00  0.00000000E+00
