Pt111\(1\1\1)\(2)                       
   1.00000000000000     
    10.5600004195999997    0.0000000000000000    0.0000000000000000
    -5.2800002097999998    9.1452286273999999    0.0000000000000000
     0.0000000000000000    0.0000000000000000   20.0000000000000000
   Pt   H 
    64     2
Selective dynamics
Direct
  0.9999984446215961  0.0000015553793773  0.0557922949150012   F   F   F
  0.3333093871396805  0.1666176119840004  0.1774143513361036   T   T   T
  0.1666198851816497  0.3333428046138943  0.2974233158504155   T   T   T
 -0.0000096391546276 -0.0000002722917911  0.4189938819047578   T   T   T
  0.9999984416169312  0.2500015483757210  0.0557922949150012   F   F   F
  0.3333107677314889  0.4166884205370580  0.1773756399761869   T   T   T
  0.1666726844543649  0.0833058891666027  0.2974041201476287   T   T   T
 -0.0000341429042345  0.2499802220261099  0.4189969351212248   T   T   T
  0.2499984416169312  0.2500015483757210  0.0557922949150012   F   F   F
  0.0833464675156153  0.4166522189778064  0.1774445011762524   T   T   T
  0.4166333798822749  0.0833327894363001  0.2973862368545344   T   T   T
  0.2499351970829009  0.2499607171493837  0.4189164944921011   T   T   T
  0.2499984446215961  0.0000015553793773  0.0557922949150012   F   F   F
  0.0833350786745465  0.1666564541016535  0.1774063628278223   T   T   T
  0.4167070796423742  0.3333059367072045  0.2974608130428036   T   T   T
  0.2500204042262894  0.0000102761464025  0.4190173634543318   T   T   T
  0.4999984446215961  0.0000015553793773  0.0557922949150012   F   F   F
  0.8333327515930415  0.1666681628797248  0.1774204691638742   T   T   T
  0.6666695432199611  0.3333642401465033  0.2973914656492816   T   T   T
  0.5000029278522538 -0.0000009504759693  0.4189875686597729   T   T   T
  0.4999984296188273  0.2500015483757210  0.0557922949150012   F   F   F
  0.8333056570879679  0.4166400370890267  0.1774236804073283   T   T   T
  0.6666713416153596  0.0833287408797166  0.2974204842753794   T   T   T
  0.5000575728983464  0.2499475207964691  0.4189816508429475   T   T   T
  0.7499984076207227  0.2500015483757210  0.0557922949150012   F   F   F
  0.5833693223932176  0.4166835249993727  0.1774181702143890   T   T   T
  0.9166865737822362  0.0833373053495820  0.2974069166632086   T   T   T
  0.7499989111440913  0.2499947431279938  0.4189840297332419   T   T   T
  0.7499984216197078  0.0000015553793773  0.0557922949150012   F   F   F
  0.5833288711282422  0.1666723782068668  0.1774196594852357   T   T   T
  0.9166910458612175  0.3333497509811444  0.2974068718309341   T   T   T
  0.7499994028854986  0.9999966870617194  0.4190024988124937   T   T   T
  0.9999984376190483  0.5000015423780582  0.0557922949150012   F   F   F
  0.3333459700698141  0.6666484434288772  0.1774466764285557   T   T   T
  0.1666748867444266  0.8333377854450114  0.2973885611503452   T   T   T
  0.0000204550721291  0.5000006772551411  0.4189867247566488   T   T   T
  0.9999984326223199  0.7500015093827130  0.0557922949150012   F   F   F
  0.3333554214144005  0.9166998421421492  0.1774242546711403   T   T   T
  0.1666712844538131  0.5833291113415355  0.2973781558703474   T   T   T
  0.0000029501814751  0.7499990605798842  0.4189863159624973   T   T   T
  0.2499984326223199  0.7500015093827130  0.0557922949150012   F   F   F
  0.0833859432382963  0.9167659870562240  0.1774397657477974   T   T   T
  0.4166685715453496  0.5833907624436550  0.2974148803362951   T   T   T
  0.2499987635602687  0.7499824587552902  0.4189862851333312   T   T   T
  0.2499984376190483  0.5000015423780582  0.0557922949150012   F   F   F
  0.0833438175836592  0.6666478978430351  0.1774029677281875   T   T   T
  0.4166573849461897  0.8333117196928469  0.2974057226523804   T   T   T
  0.2499852700445861  0.5000133853540099  0.4189983992302590   T   T   T
  0.4999984376190483  0.5000015423780582  0.0557922949150012   F   F   F
  0.8332448136303271  0.6666166994434717  0.1774330602198214   T   T   T
  0.6666604237431335  0.8333128684705459  0.2974076279378678   T   T   T
  0.5000451069794787  0.5000665173378427  0.4189212752251674   T   T   T
  0.4999984326223199  0.7500015093827130  0.0557922949150012   F   F   F
  0.8333297300059307  0.9166719935182333  0.1774300015370600   T   T   T
  0.6666949918217764  0.5833347431296309  0.2974023822572583   T   T   T
  0.5000199572777362  0.7500374216590855  0.4190092969262955   T   T   T
  0.7499984106242152  0.7500015093827130  0.0557922949150012   F   F   F
  0.5833301548512239  0.9166645513288314  0.1774219655336680   T   T   T
  0.9166656077731362  0.5833285415527013  0.2973896180403858   T   T   T
  0.7500014614987155  0.7500071044153780  0.4189915904969801   T   T   T
  0.7499983926190481  0.5000015423780582  0.0557922949150012   F   F   F
  0.5833326650969595  0.6666593002901283  0.1774131453003564   T   T   T
  0.9166635062033391  0.8333363495018544  0.2973934257404210   T   T   T
  0.7499823123818504  0.4999790869294568  0.4190071950328541   T   T   T
  0.3799544244534984  0.4112847972053126  0.5670597455780627   T   T   T
  0.3720352983366640  0.3373055503576409  0.5730514425730601   T   T   T
 
  0.00000000E+00  0.00000000E+00  0.00000000E+00
  0.00000000E+00  0.00000000E+00  0.00000000E+00
  0.00000000E+00  0.00000000E+00  0.00000000E+00
  0.00000000E+00  0.00000000E+00  0.00000000E+00
  0.00000000E+00  0.00000000E+00  0.00000000E+00
  0.00000000E+00  0.00000000E+00  0.00000000E+00
  0.00000000E+00  0.00000000E+00  0.00000000E+00
  0.00000000E+00  0.00000000E+00  0.00000000E+00
  0.00000000E+00  0.00000000E+00  0.00000000E+00
  0.00000000E+00  0.00000000E+00  0.00000000E+00
  0.00000000E+00  0.00000000E+00  0.00000000E+00
  0.00000000E+00  0.00000000E+00  0.00000000E+00
  0.00000000E+00  0.00000000E+00  0.00000000E+00
  0.00000000E+00  0.00000000E+00  0.00000000E+00
  0.00000000E+00  0.00000000E+00  0.00000000E+00
  0.00000000E+00  0.00000000E+00  0.00000000E+00
  0.00000000E+00  0.00000000E+00  0.00000000E+00
  0.00000000E+00  0.00000000E+00  0.00000000E+00
  0.00000000E+00  0.00000000E+00  0.00000000E+00
  0.00000000E+00  0.00000000E+00  0.00000000E+00
  0.00000000E+00  0.00000000E+00  0.00000000E+00
  0.00000000E+00  0.00000000E+00  0.00000000E+00
  0.00000000E+00  0.00000000E+00  0.00000000E+00
  0.00000000E+00  0.00000000E+00  0.00000000E+00
  0.00000000E+00  0.00000000E+00  0.00000000E+00
  0.00000000E+00  0.00000000E+00  0.00000000E+00
  0.00000000E+00  0.00000000E+00  0.00000000E+00
  0.00000000E+00  0.00000000E+00  0.00000000E+00
  0.00000000E+00  0.00000000E+00  0.00000000E+00
  0.00000000E+00  0.00000000E+00  0.00000000E+00
  0.00000000E+00  0.00000000E+00  0.00000000E+00
  0.00000000E+00  0.00000000E+00  0.00000000E+00
  0.00000000E+00  0.00000000E+00  0.00000000E+00
  0.00000000E+00  0.00000000E+00  0.00000000E+00
  0.00000000E+00  0.00000000E+00  0.00000000E+00
  0.00000000E+00  0.00000000E+00  0.00000000E+00
  0.00000000E+00  0.00000000E+00  0.00000000E+00
  0.00000000E+00  0.00000000E+00  0.00000000E+00
  0.00000000E+00  0.00000000E+00  0.00000000E+00
  0.00000000E+00  0.00000000E+00  0.00000000E+00
  0.00000000E+00  0.00000000E+00  0.00000000E+00
  0.00000000E+00  0.00000000E+00  0.00000000E+00
  0.00000000E+00  0.00000000E+00  0.00000000E+00
  0.00000000E+00  0.00000000E+00  0.00000000E+00
  0.00000000E+00  0.00000000E+00  0.00000000E+00
  0.00000000E+00  0.00000000E+00  0.00000000E+00
  0.00000000E+00  0.00000000E+00  0.00000000E+00
  0.00000000E+00  0.00000000E+00  0.00000000E+00
  0.00000000E+00  0.00000000E+00  0.00000000E+00
  0.00000000E+00  0.00000000E+00  0.00000000E+00
  0.00000000E+00  0.00000000E+00  0.00000000E+00
  0.00000000E+00  0.00000000E+00  0.00000000E+00
  0.00000000E+00  0.00000000E+00  0.00000000E+00
  0.00000000E+00  0.00000000E+00  0.00000000E+00
  0.00000000E+00  0.00000000E+00  0.00000000E+00
  0.00000000E+00  0.00000000E+00  0.00000000E+00
  0.00000000E+00  0.00000000E+00  0.00000000E+00
  0.00000000E+00  0.00000000E+00  0.00000000E+00
  0.00000000E+00  0.00000000E+00  0.00000000E+00
  0.00000000E+00  0.00000000E+00  0.00000000E+00
  0.00000000E+00  0.00000000E+00  0.00000000E+00
  0.00000000E+00  0.00000000E+00  0.00000000E+00
  0.00000000E+00  0.00000000E+00  0.00000000E+00
  0.00000000E+00  0.00000000E+00  0.00000000E+00
  0.00000000E+00  0.00000000E+00  0.00000000E+00
  0.00000000E+00  0.00000000E+00  0.00000000E+00
