Pt111\(1\1\1)\(2)                       
   1.00000000000000     
    10.5600004195999997    0.0000000000000000    0.0000000000000000
    -5.2800002097999998    9.1452286273999999    0.0000000000000000
     0.0000000000000000    0.0000000000000000   20.0000000000000000
   Pt   H 
    64     1
Selective dynamics
Direct
  0.9999984446215961  0.0000015553793773  0.0557922949150012   F   F   F
  0.3333124378755228  0.1689122596331758  0.1793950871772274   T   T   T
  0.1681847092936676  0.3340483283634227  0.3104245329247475   T   T   T
  0.0005284435736607  0.0007592008923104  0.4152814862693794   T   T   T
  0.9999984416169312  0.2500015483757210  0.0557922949150012   F   F   F
  0.3333403655390634  0.4166720983294313  0.1929797557446596   T   T   T
  0.1686729103535518  0.0872997991235403  0.2984330405257917   T   T   T
 -0.0002054330269393  0.2498227375640553  0.4216314658438716   T   T   T
  0.2499984416169312  0.2500015483757210  0.0557922949150012   F   F   F
  0.0856168522092853  0.4166842350110431  0.1793634026561448   T   T   T
  0.4170356623586602  0.0845510689695573  0.2957955892782214   T   T   T
  0.2479717395737519  0.2458945557812395  0.4387812178114186   T   T   T
  0.2499984446215961  0.0000015553793773  0.0557922949150012   F   F   F
  0.0856089096571542  0.1689192015907293  0.1793894184516423   T   T   T
  0.4158999119015224  0.3340475698564062  0.3104242232917397   T   T   T
  0.2502760926682874  0.0007582448418738  0.4152700290949022   T   T   T
  0.4999984446215961  0.0000015553793773  0.0557922949150012   F   F   F
  0.8343074541844812  0.1671411429828674  0.1766467133705329   T   T   T
  0.6653659187818683  0.3328904217034300  0.2957800491134258   T   T   T
  0.4999698374070229 -0.0000759749113051  0.4171362594201377   T   T   T
  0.4999984296188273  0.2500015483757210  0.0557922949150012   F   F   F
  0.8331723206635870  0.4163502873746283  0.1751441132745884   T   T   T
  0.6666370535966117  0.0832437415243354  0.2963917926240623   T   T   T
  0.5000775647241777  0.2498245446890836  0.4216210881489160   T   T   T
  0.7499984076207227  0.2500015483757210  0.0557922949150012   F   F   F
  0.5810606128458767  0.4166766908015496  0.1793669507579954   T   T   T
  0.9175560729966445  0.0845520755140244  0.2958057059396421   T   T   T
  0.7500016749220522  0.2499596545034000  0.4171397811518660   T   T   T
  0.7499984216197078  0.0000015553793773  0.0557922949150012   F   F   F
  0.5828272034325975  0.1671385423052408  0.1766495521130806   T   T   T
  0.9175568092638324  0.3329022512446793  0.2957820167611039   T   T   T
  0.7499876744044389 -0.0000797424115383  0.4171552586306642   T   T   T
  0.9999984376190483  0.5000015423780582  0.0557922949150012   F   F   F
  0.3333212599276951  0.6643951893051627  0.1793806012267970   T   T   T
  0.1676420712311958  0.8337713148279927  0.2922886595015489   T   T   T
  0.0005283742384422  0.4996340650201154  0.4152627841126523   T   T   T
  0.9999984326223199  0.7500015093827130  0.0557922949150012   F   F   F
  0.3336517906365238  0.9168249341404348  0.1751507046621247   T   T   T
  0.1686784918083838  0.5812756234123663  0.2984121403743201   T   T   T
  0.0000001602301269  0.7499591495703029  0.4104274759078557   T   T   T
  0.2499984326223199  0.7500015093827130  0.0557922949150012   F   F   F
  0.0840225406482337  0.9180395097362561  0.1747533804280168   T   T   T
  0.4158966517816720  0.5817527190119811  0.3104457661187262   T   T   T
  0.2502806403370113  0.7493828731005563  0.4152840597686892   T   T   T
  0.2499984376190483  0.5000015423780582  0.0557922949150012   F   F   F
  0.0840202836913381  0.6659812581616502  0.1747517498685205   T   T   T
  0.4170223383250412  0.8323572457549043  0.2958098371249460   T   T   T
  0.2479591697898840  0.5019283892928703  0.4387821619385517   T   T   T
  0.4999984376190483  0.5000015423780582  0.0557922949150012   F   F   F
  0.8319636587626640  0.6659825924706387  0.1747561513568298   T   T   T
  0.6653517100615896  0.8323447778317564  0.2958261994737755   T   T   T
  0.5040242827005891  0.5019331036371321  0.4387896704291512   T   T   T
  0.4999984326223199  0.7500015093827130  0.0557922949150012   F   F   F
  0.8331703586124641  0.9168222699607755  0.1751552301267076   T   T   T
  0.6626271712581531  0.5812717111266161  0.2984178214958144   T   T   T
  0.5000938271182122  0.7501285830607198  0.4216647646391170   T   T   T
  0.7499984106242152  0.7500015093827130  0.0557922949150012   F   F   F
  0.5828307180749941  0.9156765556158051  0.1766709824416950   T   T   T
  0.9161661100989745  0.5823131792311130  0.2922904303013617   T   T   T
  0.7491599589090819  0.7493855335843252  0.4153046016357715   T   T   T
  0.7499983926190481  0.5000015423780582  0.0557922949150012   F   F   F
  0.5810686422872676  0.6643904024959658  0.1793878337914924   T   T   T
  0.9161687811194623  0.8337697077774622  0.2922973103992448   T   T   T
  0.7491513453127904  0.4996332191734572  0.4152591790375920   T   T   T
  0.3333457329407583  0.4166482586297505  0.4893591990963919   T   T   T
 
  0.00000000E+00  0.00000000E+00  0.00000000E+00
  0.00000000E+00  0.00000000E+00  0.00000000E+00
  0.00000000E+00  0.00000000E+00  0.00000000E+00
  0.00000000E+00  0.00000000E+00  0.00000000E+00
  0.00000000E+00  0.00000000E+00  0.00000000E+00
  0.00000000E+00  0.00000000E+00  0.00000000E+00
  0.00000000E+00  0.00000000E+00  0.00000000E+00
  0.00000000E+00  0.00000000E+00  0.00000000E+00
  0.00000000E+00  0.00000000E+00  0.00000000E+00
  0.00000000E+00  0.00000000E+00  0.00000000E+00
  0.00000000E+00  0.00000000E+00  0.00000000E+00
  0.00000000E+00  0.00000000E+00  0.00000000E+00
  0.00000000E+00  0.00000000E+00  0.00000000E+00
  0.00000000E+00  0.00000000E+00  0.00000000E+00
  0.00000000E+00  0.00000000E+00  0.00000000E+00
  0.00000000E+00  0.00000000E+00  0.00000000E+00
  0.00000000E+00  0.00000000E+00  0.00000000E+00
  0.00000000E+00  0.00000000E+00  0.00000000E+00
  0.00000000E+00  0.00000000E+00  0.00000000E+00
  0.00000000E+00  0.00000000E+00  0.00000000E+00
  0.00000000E+00  0.00000000E+00  0.00000000E+00
  0.00000000E+00  0.00000000E+00  0.00000000E+00
  0.00000000E+00  0.00000000E+00  0.00000000E+00
  0.00000000E+00  0.00000000E+00  0.00000000E+00
  0.00000000E+00  0.00000000E+00  0.00000000E+00
  0.00000000E+00  0.00000000E+00  0.00000000E+00
  0.00000000E+00  0.00000000E+00  0.00000000E+00
  0.00000000E+00  0.00000000E+00  0.00000000E+00
  0.00000000E+00  0.00000000E+00  0.00000000E+00
  0.00000000E+00  0.00000000E+00  0.00000000E+00
  0.00000000E+00  0.00000000E+00  0.00000000E+00
  0.00000000E+00  0.00000000E+00  0.00000000E+00
  0.00000000E+00  0.00000000E+00  0.00000000E+00
  0.00000000E+00  0.00000000E+00  0.00000000E+00
  0.00000000E+00  0.00000000E+00  0.00000000E+00
  0.00000000E+00  0.00000000E+00  0.00000000E+00
  0.00000000E+00  0.00000000E+00  0.00000000E+00
  0.00000000E+00  0.00000000E+00  0.00000000E+00
  0.00000000E+00  0.00000000E+00  0.00000000E+00
  0.00000000E+00  0.00000000E+00  0.00000000E+00
  0.00000000E+00  0.00000000E+00  0.00000000E+00
  0.00000000E+00  0.00000000E+00  0.00000000E+00
  0.00000000E+00  0.00000000E+00  0.00000000E+00
  0.00000000E+00  0.00000000E+00  0.00000000E+00
  0.00000000E+00  0.00000000E+00  0.00000000E+00
  0.00000000E+00  0.00000000E+00  0.00000000E+00
  0.00000000E+00  0.00000000E+00  0.00000000E+00
  0.00000000E+00  0.00000000E+00  0.00000000E+00
  0.00000000E+00  0.00000000E+00  0.00000000E+00
  0.00000000E+00  0.00000000E+00  0.00000000E+00
  0.00000000E+00  0.00000000E+00  0.00000000E+00
  0.00000000E+00  0.00000000E+00  0.00000000E+00
  0.00000000E+00  0.00000000E+00  0.00000000E+00
  0.00000000E+00  0.00000000E+00  0.00000000E+00
  0.00000000E+00  0.00000000E+00  0.00000000E+00
  0.00000000E+00  0.00000000E+00  0.00000000E+00
  0.00000000E+00  0.00000000E+00  0.00000000E+00
  0.00000000E+00  0.00000000E+00  0.00000000E+00
  0.00000000E+00  0.00000000E+00  0.00000000E+00
  0.00000000E+00  0.00000000E+00  0.00000000E+00
  0.00000000E+00  0.00000000E+00  0.00000000E+00
  0.00000000E+00  0.00000000E+00  0.00000000E+00
  0.00000000E+00  0.00000000E+00  0.00000000E+00
  0.00000000E+00  0.00000000E+00  0.00000000E+00
  0.00000000E+00  0.00000000E+00  0.00000000E+00
