PtM\(2)                                 
   1.00000000000000     
    10.5600004195999997    0.0000000000000000    0.0000000000000000
     5.2800002097999998    9.1452286273999999    0.0000000000000000
     0.0000000000000000    0.0000000000000000   22.0000000000000000
   Cu   Pt
    64    16
Direct
  0.7849696509920080  0.8690740682030869  0.3146218335947890
  0.0349921897571560  0.8690943778134362  0.3146180249360569
  0.0350161804881813  0.6191037672447707  0.3146199503733718
  0.7862489977727162  0.8683580306474460  0.0449029301387524
  0.0363259341995015  0.8683109594873578  0.0449037755148675
  0.0362926956161082  0.6183453800389614  0.0449040668742458
  0.6190059373408903  0.2020352778920734  0.1352781702356643
  0.3690287182155986  0.9520179664187034  0.1352793628460583
  0.0350272741801626  0.3690786773239185  0.3146162978819365
  0.0363223169527360  0.3683400816063304  0.0449042535590955
  0.8690354394813204  0.2020170446494302  0.1352869309941278
  0.9522964041323844  0.5353996093201482  0.2249944827012946
  0.2850452077430959  0.1190651642311120  0.3146150786054956
  0.5350302075432558  0.6191067978824575  0.3146158904198396
  0.2850873247235981  0.3690791221713950  0.3146193113497691
  0.2862743719001402  0.1183406332320078  0.0449050022416114
  0.5363161573871861  0.6183452978256847  0.0448859087059993
  0.2863548261711975  0.3683290234167597  0.0448970020962429
  0.6190115951529171  0.9519934922649174  0.1352729054079810
  0.7023037078504990  0.7853901998127144  0.2249763534927148
  0.8690562341293893  0.7019773347607561  0.1352801621913472
  0.6190154306816080  0.4520216268702531  0.1352790409491589
  0.2850044114083578  0.8690704524140663  0.3146166422143472
  0.2863313801703563  0.8683468335586334  0.0448881440009546
  0.6190297104940352  0.7020185649146867  0.1352794445526457
  0.2022793784403734  0.0354052909181294  0.2249811173715566
  0.5350551754591587  0.3690905824766598  0.3146195332515810
  0.5362909971995461  0.3683687437586848  0.0448882480853128
  0.5350226615766911  0.1190581060723040  0.3146177197532875
  0.5363149216208686  0.1183187474011233  0.0448927739103290
  0.8690821575065222  0.4519764673158276  0.1352776201343801
  0.1190566022145767  0.4520153678988790  0.1352898458421042
  0.0350173003111560  0.1190895065712837  0.3146104508240939
  0.0362816687656260  0.1183447565593393  0.0449075346141851
  0.1190601259485583  0.9519896514841157  0.1352788457887654
  0.4522765905949638  0.5354314833947496  0.2249817015043130
  0.3690244471316207  0.2020149772029519  0.1352856928495365
  0.1190303050303168  0.2020411246193060  0.1352914691643992
  0.9522696724588966  0.7853961819272658  0.2249877994868904
  0.7849704289258808  0.6190922970369307  0.3146074952969515
  0.2850519589518690  0.6191252465532606  0.3146072594716677
  0.7862585535930613  0.6183514669256333  0.0448983113223427
  0.2863148512167539  0.6183444775035180  0.0448935090122537
  0.3690604108617687  0.7020085334752898  0.1352746690889421
  0.3690289842699147  0.4520183087808916  0.1352848660680923
  0.2022910929125896  0.2853940011368288  0.2249976988268841
  0.7850423441108674  0.3691122880277249  0.3146207036015972
  0.7862455880808281  0.3683649368485697  0.0448978039280817
  0.9522475334842891  0.0354274093689665  0.2249870054106828
  0.4522614934666656  0.7854286503385908  0.2249823050252635
  0.7022760971815859  0.5354184185743298  0.2249652260286361
  0.2022602003623999  0.7854242946542853  0.2249764891993922
  0.4522978080175553  0.0353783015136559  0.2249802758239998
  0.1190753377573004  0.7019761661053655  0.1352883550714366
  0.7022678200277604  0.0354012086071671  0.2249740019181559
  0.7849992363243983  0.1190865549167921  0.3146125822239873
  0.5350071611726767  0.8690659065770723  0.3146171576794277
  0.7863001972603310  0.1183328961842861  0.0449101627206684
  0.5362660313682235  0.8683264854442690  0.0448757432507776
  0.2022949664129279  0.5354031648828137  0.2250000190049129
  0.9522669814362034  0.2854114685553829  0.2249882191750210
  0.8690701809413249  0.9519851025296779  0.1352848888028931
  0.7022792762905775  0.2854300786585065  0.2249878622926451
  0.4523035844937702  0.2854018813105440  0.2249847530410538
  0.8676312785800273  0.9527034053905341  0.4136311025429877
  0.1175543876594124  0.4527385221472095  0.4136326091597917
  0.1175845674025773  0.9527568936556611  0.4136334593090587
  0.8675747710517594  0.4527103547981777  0.4136396540860586
  0.3676589711222599  0.9526732424088535  0.4136431538638592
  0.8675746808107572  0.2028220860869699  0.4136365079451891
  0.1174744910015195  0.2028227016576706  0.4136320525424609
  0.6175750535143532  0.9527479052965699  0.4136471318676861
  0.8675878562246297  0.7028572978094701  0.4136421114050474
  0.3675692199975634  0.2028269909353322  0.4136518536653839
  0.3675905030620519  0.7028123710056341  0.4136593887845231
  0.6175678630173018  0.4527543109374917  0.4136416104951924
  0.1174858638721597  0.7028374281461615  0.4136328087151840
  0.6174674507284742  0.2028541572915739  0.4136388989346909
  0.3675978282637022  0.4526891103365205  0.4136369920552314
  0.6174834720266558  0.7028515709841017  0.4136518798827822
 
  0.00000000E+00  0.00000000E+00  0.00000000E+00
  0.00000000E+00  0.00000000E+00  0.00000000E+00
  0.00000000E+00  0.00000000E+00  0.00000000E+00
  0.00000000E+00  0.00000000E+00  0.00000000E+00
  0.00000000E+00  0.00000000E+00  0.00000000E+00
  0.00000000E+00  0.00000000E+00  0.00000000E+00
  0.00000000E+00  0.00000000E+00  0.00000000E+00
  0.00000000E+00  0.00000000E+00  0.00000000E+00
  0.00000000E+00  0.00000000E+00  0.00000000E+00
  0.00000000E+00  0.00000000E+00  0.00000000E+00
  0.00000000E+00  0.00000000E+00  0.00000000E+00
  0.00000000E+00  0.00000000E+00  0.00000000E+00
  0.00000000E+00  0.00000000E+00  0.00000000E+00
  0.00000000E+00  0.00000000E+00  0.00000000E+00
  0.00000000E+00  0.00000000E+00  0.00000000E+00
  0.00000000E+00  0.00000000E+00  0.00000000E+00
  0.00000000E+00  0.00000000E+00  0.00000000E+00
  0.00000000E+00  0.00000000E+00  0.00000000E+00
  0.00000000E+00  0.00000000E+00  0.00000000E+00
  0.00000000E+00  0.00000000E+00  0.00000000E+00
  0.00000000E+00  0.00000000E+00  0.00000000E+00
  0.00000000E+00  0.00000000E+00  0.00000000E+00
  0.00000000E+00  0.00000000E+00  0.00000000E+00
  0.00000000E+00  0.00000000E+00  0.00000000E+00
  0.00000000E+00  0.00000000E+00  0.00000000E+00
  0.00000000E+00  0.00000000E+00  0.00000000E+00
  0.00000000E+00  0.00000000E+00  0.00000000E+00
  0.00000000E+00  0.00000000E+00  0.00000000E+00
  0.00000000E+00  0.00000000E+00  0.00000000E+00
  0.00000000E+00  0.00000000E+00  0.00000000E+00
  0.00000000E+00  0.00000000E+00  0.00000000E+00
  0.00000000E+00  0.00000000E+00  0.00000000E+00
  0.00000000E+00  0.00000000E+00  0.00000000E+00
  0.00000000E+00  0.00000000E+00  0.00000000E+00
  0.00000000E+00  0.00000000E+00  0.00000000E+00
  0.00000000E+00  0.00000000E+00  0.00000000E+00
  0.00000000E+00  0.00000000E+00  0.00000000E+00
  0.00000000E+00  0.00000000E+00  0.00000000E+00
  0.00000000E+00  0.00000000E+00  0.00000000E+00
  0.00000000E+00  0.00000000E+00  0.00000000E+00
  0.00000000E+00  0.00000000E+00  0.00000000E+00
  0.00000000E+00  0.00000000E+00  0.00000000E+00
  0.00000000E+00  0.00000000E+00  0.00000000E+00
  0.00000000E+00  0.00000000E+00  0.00000000E+00
  0.00000000E+00  0.00000000E+00  0.00000000E+00
  0.00000000E+00  0.00000000E+00  0.00000000E+00
  0.00000000E+00  0.00000000E+00  0.00000000E+00
  0.00000000E+00  0.00000000E+00  0.00000000E+00
  0.00000000E+00  0.00000000E+00  0.00000000E+00
  0.00000000E+00  0.00000000E+00  0.00000000E+00
  0.00000000E+00  0.00000000E+00  0.00000000E+00
  0.00000000E+00  0.00000000E+00  0.00000000E+00
  0.00000000E+00  0.00000000E+00  0.00000000E+00
  0.00000000E+00  0.00000000E+00  0.00000000E+00
  0.00000000E+00  0.00000000E+00  0.00000000E+00
  0.00000000E+00  0.00000000E+00  0.00000000E+00
  0.00000000E+00  0.00000000E+00  0.00000000E+00
  0.00000000E+00  0.00000000E+00  0.00000000E+00
  0.00000000E+00  0.00000000E+00  0.00000000E+00
  0.00000000E+00  0.00000000E+00  0.00000000E+00
  0.00000000E+00  0.00000000E+00  0.00000000E+00
  0.00000000E+00  0.00000000E+00  0.00000000E+00
  0.00000000E+00  0.00000000E+00  0.00000000E+00
  0.00000000E+00  0.00000000E+00  0.00000000E+00
  0.00000000E+00  0.00000000E+00  0.00000000E+00
  0.00000000E+00  0.00000000E+00  0.00000000E+00
  0.00000000E+00  0.00000000E+00  0.00000000E+00
  0.00000000E+00  0.00000000E+00  0.00000000E+00
  0.00000000E+00  0.00000000E+00  0.00000000E+00
  0.00000000E+00  0.00000000E+00  0.00000000E+00
  0.00000000E+00  0.00000000E+00  0.00000000E+00
  0.00000000E+00  0.00000000E+00  0.00000000E+00
  0.00000000E+00  0.00000000E+00  0.00000000E+00
  0.00000000E+00  0.00000000E+00  0.00000000E+00
  0.00000000E+00  0.00000000E+00  0.00000000E+00
  0.00000000E+00  0.00000000E+00  0.00000000E+00
  0.00000000E+00  0.00000000E+00  0.00000000E+00
  0.00000000E+00  0.00000000E+00  0.00000000E+00
  0.00000000E+00  0.00000000E+00  0.00000000E+00
  0.00000000E+00  0.00000000E+00  0.00000000E+00
