Pt111\(1\1\1)\(2)                       
   1.00000000000000     
    10.5600004195999997    0.0000000000000000    0.0000000000000000
    -5.2800002097999998    9.1452286273999999    0.0000000000000000
     0.0000000000000000    0.0000000000000000   20.0000000000000000
   Pt   H 
    64     1
Selective dynamics
Direct
  0.0007119786969741  0.0009298362423433  0.0474536843186552   T   T   T
  0.3326637891482614  0.1658817233706926  0.1839352126853025   T   T   T
  0.1677638015394704  0.3338061459746223  0.3136933809186689   T   T   T
  0.0008208206297771 -0.0002600484591334  0.4169572085500635   T   T   T
  0.0004622835079609  0.2502826539696732  0.0624962530077416   T   T   T
  0.3333146399451971  0.4166330852064527  0.1974943070839321   T   T   T
  0.1673159756151393  0.0845707061304470  0.3007554038617091   T   T   T
 -0.0001264978771132  0.2498715594077464  0.4241070487754016   T   T   T
  0.2500058456158114  0.2500577348626810  0.0667957539032089   T   T   T
  0.0832398808606429  0.4173102790981996  0.1839216827734750   T   T   T
  0.4161393162263345  0.0835395222624875  0.2978309247248735   T   T   T
  0.2478954480697954  0.2457286780977350  0.4407131874384638   T   T   T
  0.2501641100543016  0.0009234549659684  0.0474398468942256   T   T   T
  0.0832330394632336  0.1658933943459739  0.1839431523243197   T   T   T
  0.4160899586861190  0.3338003983377459  0.3136794104352194   T   T   T
  0.2489873315786071 -0.0002594982844234  0.4169427028120635   T   T   T
  0.4991998759880999 -0.0003725441860871  0.0550801738955689   T   T   T
  0.8328959456410961  0.1664495558618893  0.1785667548925693   T   T   T
  0.6663826239651258  0.3337661535517121  0.2978125985415470   T   T   T
  0.4994779467523642  0.9996913600351641  0.4176667475243753   T   T   T
  0.4997732911248194  0.2502744515266765  0.0624894638936438   T   T   T
  0.8338335507827540  0.4176620920635473  0.1707324571921447   T   T   T
  0.6666743498375494  0.0832725534092760  0.2963595164493208   T   T   T
  0.5000518663884908  0.2498768031531144  0.4240917131299143   T   T   T
  0.7503953624172668  0.2508362234187358  0.0550408068130217   T   T   T
  0.5840977597735562  0.4173106847701568  0.1839277597410306   T   T   T
  0.9174409526977442  0.0835372323225526  0.2978511118036246   T   T   T
  0.7502446551939127  0.2504397624826603  0.4176376463505461   T   T   T
  0.7503846192217893 -0.0003631276381272  0.0551173512419161   T   T   T
  0.5835638195951957  0.1664441094879765  0.1785500300988153   T   T   T
  0.9174282621116538  0.3337546276380082  0.2978186053353549   T   T   T
  0.7502760504091303  0.9996868039561621  0.4176795310776493   T   T   T
  0.0007097047783537  0.4998621839050498  0.0473965257089062   T   T   T
  0.3326579355018832  0.6667304162700601  0.1839452286143420   T   T   T
  0.1679023032165206  0.8338783918260730  0.2839369653010341   T   T   T
  0.0008234092671190  0.5009382810027705  0.4169307304501855   T   T   T
 -0.0000062194733731  0.7500467716386233  0.0407424742199593   T   T   T
  0.3323066572575794  0.9161251395977057  0.1707787487854444   T   T   T
  0.1673228569586361  0.5826150811270524  0.3007489597922006   T   T   T
 -0.0000012197266744  0.7499212483479801  0.4016675329091616   T   T   T
  0.2501678334060076  0.7493250882736240  0.0474319007909297   T   T   T
  0.0838388566171301  0.9176682930868511  0.1643697368802338   T   T   T
  0.4160937379496473  0.5821415616683292  0.3137135307636749   T   T   T
  0.2489762234611670  0.7490982747468188  0.4169619160039741   T   T   T
  0.2499973504519799  0.5000233437882509  0.0667458819763300   T   T   T
  0.0838594988684803  0.6661368912959829  0.1643527368141246   T   T   T
  0.4161217637486202  0.8324509674079081  0.2978606495116310   T   T   T
  0.2478951626402972  0.5020413450794878  0.4407284331642009   T   T   T
  0.4999818915318199  0.5000294007829842  0.0667787776119581   T   T   T
  0.8322851853524250  0.6661305137797860  0.1643592443392013   T   T   T
  0.6663904165098434  0.8324571969485810  0.2978776647476470   T   T   T
  0.5042006475027261  0.5020416725448706  0.4407127143225544   T   T   T
  0.4997614244711513  0.7495770648223280  0.0625209356967686   T   T   T
  0.8338205974979673  0.9161270185978363  0.1708104534603197   T   T   T
  0.6653576251378024  0.5826158527903870  0.3007597771832664   T   T   T
  0.5000561109566365  0.7500571359422926  0.4241311070612255   T   T   T
  0.7491083389904718  0.7493283293759517  0.0474541219085972   T   T   T
  0.5835346932074729  0.9170648096554557  0.1785966104192530   T   T   T
  0.9160357673590706  0.5820289691521028  0.2839127488419986   T   T   T
  0.7501779789354913  0.7490969101157364  0.4169772983208032   T   T   T
  0.7491028985830031  0.4998663063975418  0.0474068335017538   T   T   T
  0.5840795315892693  0.6667351788796722  0.1839570028998164   T   T   T
  0.9160290508955081  0.8338752529475825  0.2839524069138404   T   T   T
  0.7501825144326172  0.5009369005440796  0.4169343489267073   T   T   T
  0.3333105775300148  0.4165715635289181  0.4903585179445882   T   T   T
 
  0.00000000E+00  0.00000000E+00  0.00000000E+00
  0.00000000E+00  0.00000000E+00  0.00000000E+00
  0.00000000E+00  0.00000000E+00  0.00000000E+00
  0.00000000E+00  0.00000000E+00  0.00000000E+00
  0.00000000E+00  0.00000000E+00  0.00000000E+00
  0.00000000E+00  0.00000000E+00  0.00000000E+00
  0.00000000E+00  0.00000000E+00  0.00000000E+00
  0.00000000E+00  0.00000000E+00  0.00000000E+00
  0.00000000E+00  0.00000000E+00  0.00000000E+00
  0.00000000E+00  0.00000000E+00  0.00000000E+00
  0.00000000E+00  0.00000000E+00  0.00000000E+00
  0.00000000E+00  0.00000000E+00  0.00000000E+00
  0.00000000E+00  0.00000000E+00  0.00000000E+00
  0.00000000E+00  0.00000000E+00  0.00000000E+00
  0.00000000E+00  0.00000000E+00  0.00000000E+00
  0.00000000E+00  0.00000000E+00  0.00000000E+00
  0.00000000E+00  0.00000000E+00  0.00000000E+00
  0.00000000E+00  0.00000000E+00  0.00000000E+00
  0.00000000E+00  0.00000000E+00  0.00000000E+00
  0.00000000E+00  0.00000000E+00  0.00000000E+00
  0.00000000E+00  0.00000000E+00  0.00000000E+00
  0.00000000E+00  0.00000000E+00  0.00000000E+00
  0.00000000E+00  0.00000000E+00  0.00000000E+00
  0.00000000E+00  0.00000000E+00  0.00000000E+00
  0.00000000E+00  0.00000000E+00  0.00000000E+00
  0.00000000E+00  0.00000000E+00  0.00000000E+00
  0.00000000E+00  0.00000000E+00  0.00000000E+00
  0.00000000E+00  0.00000000E+00  0.00000000E+00
  0.00000000E+00  0.00000000E+00  0.00000000E+00
  0.00000000E+00  0.00000000E+00  0.00000000E+00
  0.00000000E+00  0.00000000E+00  0.00000000E+00
  0.00000000E+00  0.00000000E+00  0.00000000E+00
  0.00000000E+00  0.00000000E+00  0.00000000E+00
  0.00000000E+00  0.00000000E+00  0.00000000E+00
  0.00000000E+00  0.00000000E+00  0.00000000E+00
  0.00000000E+00  0.00000000E+00  0.00000000E+00
  0.00000000E+00  0.00000000E+00  0.00000000E+00
  0.00000000E+00  0.00000000E+00  0.00000000E+00
  0.00000000E+00  0.00000000E+00  0.00000000E+00
  0.00000000E+00  0.00000000E+00  0.00000000E+00
  0.00000000E+00  0.00000000E+00  0.00000000E+00
  0.00000000E+00  0.00000000E+00  0.00000000E+00
  0.00000000E+00  0.00000000E+00  0.00000000E+00
  0.00000000E+00  0.00000000E+00  0.00000000E+00
  0.00000000E+00  0.00000000E+00  0.00000000E+00
  0.00000000E+00  0.00000000E+00  0.00000000E+00
  0.00000000E+00  0.00000000E+00  0.00000000E+00
  0.00000000E+00  0.00000000E+00  0.00000000E+00
  0.00000000E+00  0.00000000E+00  0.00000000E+00
  0.00000000E+00  0.00000000E+00  0.00000000E+00
  0.00000000E+00  0.00000000E+00  0.00000000E+00
  0.00000000E+00  0.00000000E+00  0.00000000E+00
  0.00000000E+00  0.00000000E+00  0.00000000E+00
  0.00000000E+00  0.00000000E+00  0.00000000E+00
  0.00000000E+00  0.00000000E+00  0.00000000E+00
  0.00000000E+00  0.00000000E+00  0.00000000E+00
  0.00000000E+00  0.00000000E+00  0.00000000E+00
  0.00000000E+00  0.00000000E+00  0.00000000E+00
  0.00000000E+00  0.00000000E+00  0.00000000E+00
  0.00000000E+00  0.00000000E+00  0.00000000E+00
  0.00000000E+00  0.00000000E+00  0.00000000E+00
  0.00000000E+00  0.00000000E+00  0.00000000E+00
  0.00000000E+00  0.00000000E+00  0.00000000E+00
  0.00000000E+00  0.00000000E+00  0.00000000E+00
  0.00000000E+00  0.00000000E+00  0.00000000E+00
