Pt111\(1\1\1)\(2)                       
   1.00000000000000     
    10.5600004195999997    0.0000000000000000    0.0000000000000000
    -5.2800002097999998    9.1452286273999999    0.0000000000000000
     0.0000000000000000    0.0000000000000000   20.0000000000000000
   Pt   H 
    64     2
Selective dynamics
Direct
  0.9999984446215961  0.0000015553793773  0.0557922949150012   F   F   F
  0.3333317286582087  0.1666682603465262  0.1775239735950009   F   F   F
  0.1700916373705965  0.3338301762246871  0.2996235143099995   F   F   F
  0.0008288377366057  0.0010733387540043  0.4196084630349972   F   F   F
  0.9999984416169312  0.2500015483757210  0.0557922949150012   F   F   F
  0.3333317206590891  0.4166682673501754  0.1775239735950009   F   F   F
  0.1686057086682808  0.0866685495456352  0.2986939705400005   F   F   F
  0.0011424664081972  0.2500267843549864  0.4156439221800028   F   F   F
  0.2499984416169312  0.2500015483757210  0.0557922949150012   F   F   F
  0.0833317206590891  0.4166682673501754  0.1775239735950009   F   F   F
  0.4171595863163944  0.0851880290850104  0.2972998532600002   F   F   F
  0.2469117455538523  0.2472786371162528  0.4406692065100017   F   F   F
  0.2499984446215961  0.0000015553793773  0.0557922949150012   F   F   F
  0.0833317236582047  0.1666682603465262  0.1775239735950009   F   F   F
  0.4163616978227793  0.3339854004249574  0.3015238579050035   F   F   F
  0.2498226196054176  0.0013723592937183  0.4161054676799978   F   F   F
  0.4999984446215961  0.0000015553793773  0.0557922949150012   F   F   F
  0.8333316836582085  0.1666682603465262  0.1775239735950009   F   F   F
  0.6651425700254094  0.3331089029499807  0.2973269168800030   F   F   F
  0.5004915521636875  0.0001873268968779  0.4180174223250006   F   F   F
  0.4999984296188273  0.2500015483757210  0.0557922949150012   F   F   F
  0.8333316756590889  0.4166682673501754  0.1775239735950009   F   F   F
  0.6670158752547550  0.0833918127224393  0.2971659639550026   F   F   F
  0.5013186545983643  0.2496152809740053  0.4233105145899998   F   F   F
  0.7499984076207227  0.2500015483757210  0.0557922949150012   F   F   F
  0.5833316756590889  0.4166682673501754  0.1775239735950009   F   F   F
  0.9182218965913194  0.0835492152389463  0.2965702846150009   F   F   F
  0.7505275285366935  0.2501968066434799  0.4180859410350024   F   F   F
  0.7499984216197078  0.0000015553793773  0.0557922949150012   F   F   F
  0.5833316616506323  0.1666682603465262  0.1775239735950009   F   F   F
  0.9173079158389612  0.3334603410420129  0.2964256387950002   F   F   F
  0.7507509513586612  0.0001219069577587  0.4172600356099991   F   F   F
  0.9999984376190483  0.5000015423780582  0.0557922949150012   F   F   F
  0.3333317066506325  0.6666682603465262  0.1775239735950009   F   F   F
  0.1674478920967388  0.8336606615342248  0.2964519837099999   F   F   F
  0.9994318977803829  0.5005401242441536  0.4182921610900010   F   F   F
  0.9999984326223199  0.7500015093827130  0.0557922949150012   F   F   F
  0.3333317276521655  0.9166682803514945  0.1775239735950009   F   F   F
  0.1685684379256003  0.5818707714487061  0.2986688202350010   F   F   F
  0.9999352207193297  0.7509971715548645  0.4160272638649971   F   F   F
  0.2499984326223199  0.7500015093827130  0.0557922949150012   F   F   F
  0.0833317276521655  0.9166682803514945  0.1775239735950009   F   F   F
  0.4165262138366614  0.5802855321298566  0.2996223191600009   F   F   F
  0.2501995150418068  0.7512531331273280  0.4183399764100031   F   F   F
  0.2499984376190483  0.5000015423780582  0.0557922949150012   F   F   F
  0.0833317066506325  0.6666682603465262  0.1775239735950009   F   F   F
  0.4169391716232411  0.8331045092052634  0.2964109901050023   F   F   F
  0.2487641846707902  0.5021057842165177  0.4254483653050016   F   F   F
  0.4999984376190483  0.5000015423780582  0.0557922949150012   F   F   F
  0.8333317066506325  0.6666682603465262  0.1775239735950009   F   F   F
  0.6668931830303677  0.8322540649663210  0.2966416902999995   F   F   F
  0.5037974345388960  0.5041262281171370  0.4385640900599981   F   F   F
  0.4999984326223199  0.7500015093827130  0.0557922949150012   F   F   F
  0.8333317046597415  0.9166682803514945  0.1775239735950009   F   F   F
  0.6637483354018769  0.5818361579892795  0.2986654179649975   F   F   F
  0.5007375256029007  0.7497724466238296  0.4156800305700017   F   F   F
  0.7499984106242152  0.7500015093827130  0.0557922949150012   F   F   F
  0.5833316826521724  0.9166682803514945  0.1775239735950009   F   F   F
  0.9167710353692726  0.5829645552027856  0.2964380107800011   F   F   F
  0.7499159213873625  0.7501627878657473  0.4198637815850006   F   F   F
  0.7499983926190481  0.5000015423780582  0.0557922949150012   F   F   F
  0.5833316616506323  0.6666682603465262  0.1775239735950009   F   F   F
  0.9167558033190346  0.8336115804977311  0.2971038881400005   F   F   F
  0.7496346923893853  0.5009847454303156  0.4161041313950022   F   F   F
  0.3125263292497564  0.4324841203368024  0.4857357070999981   T   T   T
  0.4346087485474824  0.3125290069989858  0.4845027498400007   T   T   T
 
  0.00000000E+00  0.00000000E+00  0.00000000E+00
  0.00000000E+00  0.00000000E+00  0.00000000E+00
  0.00000000E+00  0.00000000E+00  0.00000000E+00
  0.00000000E+00  0.00000000E+00  0.00000000E+00
  0.00000000E+00  0.00000000E+00  0.00000000E+00
  0.00000000E+00  0.00000000E+00  0.00000000E+00
  0.00000000E+00  0.00000000E+00  0.00000000E+00
  0.00000000E+00  0.00000000E+00  0.00000000E+00
  0.00000000E+00  0.00000000E+00  0.00000000E+00
  0.00000000E+00  0.00000000E+00  0.00000000E+00
  0.00000000E+00  0.00000000E+00  0.00000000E+00
  0.00000000E+00  0.00000000E+00  0.00000000E+00
  0.00000000E+00  0.00000000E+00  0.00000000E+00
  0.00000000E+00  0.00000000E+00  0.00000000E+00
  0.00000000E+00  0.00000000E+00  0.00000000E+00
  0.00000000E+00  0.00000000E+00  0.00000000E+00
  0.00000000E+00  0.00000000E+00  0.00000000E+00
  0.00000000E+00  0.00000000E+00  0.00000000E+00
  0.00000000E+00  0.00000000E+00  0.00000000E+00
  0.00000000E+00  0.00000000E+00  0.00000000E+00
  0.00000000E+00  0.00000000E+00  0.00000000E+00
  0.00000000E+00  0.00000000E+00  0.00000000E+00
  0.00000000E+00  0.00000000E+00  0.00000000E+00
  0.00000000E+00  0.00000000E+00  0.00000000E+00
  0.00000000E+00  0.00000000E+00  0.00000000E+00
  0.00000000E+00  0.00000000E+00  0.00000000E+00
  0.00000000E+00  0.00000000E+00  0.00000000E+00
  0.00000000E+00  0.00000000E+00  0.00000000E+00
  0.00000000E+00  0.00000000E+00  0.00000000E+00
  0.00000000E+00  0.00000000E+00  0.00000000E+00
  0.00000000E+00  0.00000000E+00  0.00000000E+00
  0.00000000E+00  0.00000000E+00  0.00000000E+00
  0.00000000E+00  0.00000000E+00  0.00000000E+00
  0.00000000E+00  0.00000000E+00  0.00000000E+00
  0.00000000E+00  0.00000000E+00  0.00000000E+00
  0.00000000E+00  0.00000000E+00  0.00000000E+00
  0.00000000E+00  0.00000000E+00  0.00000000E+00
  0.00000000E+00  0.00000000E+00  0.00000000E+00
  0.00000000E+00  0.00000000E+00  0.00000000E+00
  0.00000000E+00  0.00000000E+00  0.00000000E+00
  0.00000000E+00  0.00000000E+00  0.00000000E+00
  0.00000000E+00  0.00000000E+00  0.00000000E+00
  0.00000000E+00  0.00000000E+00  0.00000000E+00
  0.00000000E+00  0.00000000E+00  0.00000000E+00
  0.00000000E+00  0.00000000E+00  0.00000000E+00
  0.00000000E+00  0.00000000E+00  0.00000000E+00
  0.00000000E+00  0.00000000E+00  0.00000000E+00
  0.00000000E+00  0.00000000E+00  0.00000000E+00
  0.00000000E+00  0.00000000E+00  0.00000000E+00
  0.00000000E+00  0.00000000E+00  0.00000000E+00
  0.00000000E+00  0.00000000E+00  0.00000000E+00
  0.00000000E+00  0.00000000E+00  0.00000000E+00
  0.00000000E+00  0.00000000E+00  0.00000000E+00
  0.00000000E+00  0.00000000E+00  0.00000000E+00
  0.00000000E+00  0.00000000E+00  0.00000000E+00
  0.00000000E+00  0.00000000E+00  0.00000000E+00
  0.00000000E+00  0.00000000E+00  0.00000000E+00
  0.00000000E+00  0.00000000E+00  0.00000000E+00
  0.00000000E+00  0.00000000E+00  0.00000000E+00
  0.00000000E+00  0.00000000E+00  0.00000000E+00
  0.00000000E+00  0.00000000E+00  0.00000000E+00
  0.00000000E+00  0.00000000E+00  0.00000000E+00
  0.00000000E+00  0.00000000E+00  0.00000000E+00
  0.00000000E+00  0.00000000E+00  0.00000000E+00
  0.00000000E+00  0.00000000E+00  0.00000000E+00
  0.00000000E+00  0.00000000E+00  0.00000000E+00
