Pt111                                   
   1.00000000000000     
    10.6599999990000001    0.0000000000000000    0.0000000000000000
     5.3299999237000000    9.2318306721900001    0.0000000000000000
     0.0000000000000000    0.0000000000000000   22.0000000000000000
   Pt
    80
Selective dynamics
Direct
  0.7834461555673097  0.8706008880553674  0.3342165471762946   T   T   T
  0.0335055219528817  0.8704983492473822  0.3342939436830984   T   T   T
  0.0334510081741449  0.6205601797636627  0.3345382783465307   T   T   T
  0.7873457860672349  0.8676687371232734  0.0091897655592970   T   T   T
  0.0373164274183759  0.8676609725207433  0.0093454426287947   T   T   T
  0.0373047611401204  0.6176416299479098  0.0095156730785150   T   T   T
  0.6194869217934038  0.2018282151489742  0.1191211999027743   T   T   T
  0.3696016970723449  0.9513740187629228  0.1190707321317322   T   T   T
  0.0333875974401318  0.3707249034967480  0.3341700481792758   T   T   T
  0.0373379264544133  0.3676279749131684  0.0095456631822833   T   T   T
  0.8695341823390269  0.2017885663381834  0.1188852928761649   T   T   T
  0.9515289532210368  0.5360231772728909  0.2264239105632540   T   T   T
  0.2836458035396202  0.1205090573675975  0.3341409422742371   T   T   T
  0.5334293666990251  0.6205172578367445  0.3359624791135969   T   T   T
  0.2835634582331838  0.3707427707805142  0.3354754599245807   T   T   T
  0.2873496306396287  0.1176026513228233  0.0094999501572377   T   T   T
  0.5373151088716778  0.6176359317216964  0.0094017423231699   T   T   T
  0.2874104995737948  0.3675242592285446  0.0096232343803378   T   T   T
  0.6198003551756418  0.9515428704848552  0.1189286139758449   T   T   T
  0.7014113834920649  0.7859792792598862  0.2266246749207573   T   T   T
  0.8696225199032854  0.7017560904034069  0.1190235071136385   T   T   T
  0.6194241378505376  0.4517491136098143  0.1193990667652201   T   T   T
  0.2836140941376776  0.8702719229461976  0.3350456199061928   T   T   T
  0.2873332005972169  0.8677262388985135  0.0093792917146091   T   T   T
  0.6196287004195079  0.7014921199326158  0.1191771122722706   T   T   T
  0.2016177195862684  0.0357557262024835  0.2267402703845459   T   T   T
  0.8657843345269222  0.9551102015303601  0.4438924679230100   T   T   T
  0.1156747333521616  0.4550933839384436  0.4447254527020224   T   T   T
  0.1157718676712394  0.9549796643270260  0.4442770708901583   T   T   T
  0.8658081956744991  0.4550984071492670  0.4442459778750150   T   T   T
  0.3658401871116336  0.9549785799797702  0.4442354712208733   T   T   T
  0.8658121411165647  0.2049960425324480  0.4439782466176941   T   T   T
  0.1157760464882353  0.2050256251078207  0.4433566546388531   T   T   T
  0.6156821923266160  0.9551204188620189  0.4439526073998230   T   T   T
  0.8657680551966910  0.7050556664887419  0.4440025915542775   T   T   T
  0.3657799080128466  0.2049671828159328  0.4444576087562081   T   T   T
  0.3658030361067862  0.7050015999338929  0.4460592578575566   T   T   T
  0.6158824373962433  0.4549831726566507  0.4459849782955557   T   T   T
  0.1157361229177730  0.7050339919467468  0.4445852810779030   T   T   T
  0.6157947927344680  0.2050208918431962  0.4445492892282978   T   T   T
  0.5334200209765102  0.3706865106240705  0.3361360682806211   T   T   T
  0.5372893681415396  0.3677354034289785  0.0093853752260713   T   T   T
  0.5334945011780372  0.1206411981111628  0.3343450135435983   T   T   T
  0.5373080027102630  0.1176548103493659  0.0092927283648166   T   T   T
  0.8695611373282534  0.4515492956807183  0.1190347576110058   T   T   T
  0.1200268929045613  0.4515224737509819  0.1193258595797730   T   T   T
  0.0334629544256014  0.1204898367631933  0.3339826228856015   T   T   T
  0.0373124748825778  0.1176882601330029  0.0093276490044024   T   T   T
  0.1199382180892295  0.9513775378364879  0.1190646828639877   T   T   T
  0.3657543458770372  0.4549933556839803  0.4463829916827943   T   T   T
  0.4514862446190520  0.5359991338617613  0.2282835536309183   T   T   T
  0.6158246714410298  0.7050463277414708  0.4444306981494353   T   T   T
  0.3697052484639468  0.2018182094545968  0.1192241259504286   T   T   T
  0.1196685006713609  0.2015785773436997  0.1191582710734918   T   T   T
  0.9515820357066884  0.7859945649835064  0.2266961333416078   T   T   T
  0.7833778906313090  0.6205850837720617  0.3342586143497417   T   T   T
  0.2835982012253576  0.6204870955221939  0.3362357412616510   T   T   T
  0.7874384209042903  0.6176000570065594  0.0093266734099966   T   T   T
  0.2874063539203938  0.6176153537159554  0.0095862389996712   T   T   T
  0.3698104154248110  0.7013765397323632  0.1195175679042096   T   T   T
  0.3698614527773685  0.4516859023854421  0.1196753660902961   T   T   T
  0.2016315728091095  0.2862240121888365  0.2269628237832668   T   T   T
  0.7831863001937491  0.3707186805375633  0.3347725025089737   T   T   T
  0.7874913036873423  0.3675834325319537  0.0092639334961317   T   T   T
  0.9515115741157213  0.0360059708852620  0.2262397637569278   T   T   T
  0.4515233890367152  0.7856510780718717  0.2271805520865981   T   T   T
  0.7010856202636141  0.5360892264207342  0.2270548379696256   T   T   T
  0.2018073704267185  0.7856148993361278  0.2272881984744795   T   T   T
  0.4514929702232373  0.0360031354964836  0.2263467821009552   T   T   T
  0.1199940591123787  0.7014463409156009  0.1193903147855652   T   T   T
  0.7014051731500397  0.0361531023810192  0.2265184792310309   T   T   T
  0.7833647669521361  0.1206360959930277  0.3341220949686627   T   T   T
  0.5335048262910327  0.8705072377669746  0.3342310765543806   T   T   T
  0.7874201591313069  0.1176353183570935  0.0091327749168552   T   T   T
  0.5372767308012137  0.8676939140035390  0.0092444383855690   T   T   T
  0.2018540727370600  0.5360631816125192  0.2276010157422152   T   T   T
  0.9512622843737389  0.2861676282002071  0.2265842335368903   T   T   T
  0.8696069545352126  0.9515321901843525  0.1188917104851848   T   T   T
  0.7010244925479172  0.2863636348147404  0.2269964932916484   T   T   T
  0.4515304352059438  0.2863940943585140  0.2274439356630552   T   T   T
 
  0.00000000E+00  0.00000000E+00  0.00000000E+00
  0.00000000E+00  0.00000000E+00  0.00000000E+00
  0.00000000E+00  0.00000000E+00  0.00000000E+00
  0.00000000E+00  0.00000000E+00  0.00000000E+00
  0.00000000E+00  0.00000000E+00  0.00000000E+00
  0.00000000E+00  0.00000000E+00  0.00000000E+00
  0.00000000E+00  0.00000000E+00  0.00000000E+00
  0.00000000E+00  0.00000000E+00  0.00000000E+00
  0.00000000E+00  0.00000000E+00  0.00000000E+00
  0.00000000E+00  0.00000000E+00  0.00000000E+00
  0.00000000E+00  0.00000000E+00  0.00000000E+00
  0.00000000E+00  0.00000000E+00  0.00000000E+00
  0.00000000E+00  0.00000000E+00  0.00000000E+00
  0.00000000E+00  0.00000000E+00  0.00000000E+00
  0.00000000E+00  0.00000000E+00  0.00000000E+00
  0.00000000E+00  0.00000000E+00  0.00000000E+00
  0.00000000E+00  0.00000000E+00  0.00000000E+00
  0.00000000E+00  0.00000000E+00  0.00000000E+00
  0.00000000E+00  0.00000000E+00  0.00000000E+00
  0.00000000E+00  0.00000000E+00  0.00000000E+00
  0.00000000E+00  0.00000000E+00  0.00000000E+00
  0.00000000E+00  0.00000000E+00  0.00000000E+00
  0.00000000E+00  0.00000000E+00  0.00000000E+00
  0.00000000E+00  0.00000000E+00  0.00000000E+00
  0.00000000E+00  0.00000000E+00  0.00000000E+00
  0.00000000E+00  0.00000000E+00  0.00000000E+00
  0.00000000E+00  0.00000000E+00  0.00000000E+00
  0.00000000E+00  0.00000000E+00  0.00000000E+00
  0.00000000E+00  0.00000000E+00  0.00000000E+00
  0.00000000E+00  0.00000000E+00  0.00000000E+00
  0.00000000E+00  0.00000000E+00  0.00000000E+00
  0.00000000E+00  0.00000000E+00  0.00000000E+00
  0.00000000E+00  0.00000000E+00  0.00000000E+00
  0.00000000E+00  0.00000000E+00  0.00000000E+00
  0.00000000E+00  0.00000000E+00  0.00000000E+00
  0.00000000E+00  0.00000000E+00  0.00000000E+00
  0.00000000E+00  0.00000000E+00  0.00000000E+00
  0.00000000E+00  0.00000000E+00  0.00000000E+00
  0.00000000E+00  0.00000000E+00  0.00000000E+00
  0.00000000E+00  0.00000000E+00  0.00000000E+00
  0.00000000E+00  0.00000000E+00  0.00000000E+00
  0.00000000E+00  0.00000000E+00  0.00000000E+00
  0.00000000E+00  0.00000000E+00  0.00000000E+00
  0.00000000E+00  0.00000000E+00  0.00000000E+00
  0.00000000E+00  0.00000000E+00  0.00000000E+00
  0.00000000E+00  0.00000000E+00  0.00000000E+00
  0.00000000E+00  0.00000000E+00  0.00000000E+00
  0.00000000E+00  0.00000000E+00  0.00000000E+00
  0.00000000E+00  0.00000000E+00  0.00000000E+00
  0.00000000E+00  0.00000000E+00  0.00000000E+00
  0.00000000E+00  0.00000000E+00  0.00000000E+00
  0.00000000E+00  0.00000000E+00  0.00000000E+00
  0.00000000E+00  0.00000000E+00  0.00000000E+00
  0.00000000E+00  0.00000000E+00  0.00000000E+00
  0.00000000E+00  0.00000000E+00  0.00000000E+00
  0.00000000E+00  0.00000000E+00  0.00000000E+00
  0.00000000E+00  0.00000000E+00  0.00000000E+00
  0.00000000E+00  0.00000000E+00  0.00000000E+00
  0.00000000E+00  0.00000000E+00  0.00000000E+00
  0.00000000E+00  0.00000000E+00  0.00000000E+00
  0.00000000E+00  0.00000000E+00  0.00000000E+00
  0.00000000E+00  0.00000000E+00  0.00000000E+00
  0.00000000E+00  0.00000000E+00  0.00000000E+00
  0.00000000E+00  0.00000000E+00  0.00000000E+00
  0.00000000E+00  0.00000000E+00  0.00000000E+00
  0.00000000E+00  0.00000000E+00  0.00000000E+00
  0.00000000E+00  0.00000000E+00  0.00000000E+00
  0.00000000E+00  0.00000000E+00  0.00000000E+00
  0.00000000E+00  0.00000000E+00  0.00000000E+00
  0.00000000E+00  0.00000000E+00  0.00000000E+00
  0.00000000E+00  0.00000000E+00  0.00000000E+00
  0.00000000E+00  0.00000000E+00  0.00000000E+00
  0.00000000E+00  0.00000000E+00  0.00000000E+00
  0.00000000E+00  0.00000000E+00  0.00000000E+00
  0.00000000E+00  0.00000000E+00  0.00000000E+00
  0.00000000E+00  0.00000000E+00  0.00000000E+00
  0.00000000E+00  0.00000000E+00  0.00000000E+00
  0.00000000E+00  0.00000000E+00  0.00000000E+00
  0.00000000E+00  0.00000000E+00  0.00000000E+00
  0.00000000E+00  0.00000000E+00  0.00000000E+00
