PtM\(2)                                 
   1.00000000000000     
    10.5600004195999997    0.0000000000000000    0.0000000000000000
     5.2800002097999998    9.1452286273999999    0.0000000000000000
     0.0000000000000000    0.0000000000000000   22.0000000000000000
   Fe   Pt   H 
    64    16     2
Selective dynamics
Direct
  0.7945138001722650  0.8811110418542004  0.3085170085184664   T   T   T
  0.0470962497738995  0.8745281684198072  0.3186073488335469   T   T   T
  0.0555696711508297  0.6249399887080458  0.3141518323309074   T   T   T
  0.8026267767292836  0.8615467289022831  0.0454892451863671   F   F   F
  0.0404195207448552  0.8617027190320172  0.0531321522045474   F   F   F
  0.0509400554688710  0.6062387638608655  0.0434550926181814   F   F   F
  0.6179624315601515  0.2089407032181825  0.1354205681000025   F   F   F
  0.3771081362849742  0.9520552039687331  0.1315154562954532   F   F   F
  0.0450866135102586  0.3755359388769534  0.3148689728052024   T   T   T
  0.0513505762289554  0.3533140917898123  0.0488741219272697   F   F   F
  0.8796363959013576  0.1964455081765166  0.1405242804454545   F   F   F
  0.9706336721705194  0.5320567462456673  0.2236583494431320   T   T   T
  0.2871914455916077  0.1315348015460202  0.3149761580653054   T   T   T
  0.5306849631203890  0.6253575831486600  0.3135364880799401   T   T   T
  0.2960756209765089  0.3749777413299770  0.3184235984597045   T   T   T
  0.2893256628225913  0.1234214636929067  0.0441537578181794   F   F   F
  0.5276420206625545  0.6272430854941717  0.0450746674136369   F   F   F
  0.2890943956913929  0.3689426548277837  0.0479302053681820   F   F   F
  0.6230886774246684  0.9589308993681485  0.1313536480500019   F   F   F
  0.7093169986311617  0.7894085721496443  0.2180573956063647   T   T   T
  0.8871502961281266  0.6953355374350920  0.1350361609363659   F   F   F
  0.6200488592634272  0.4538069531433777  0.1336872440681844   F   F   F
  0.2859361260955200  0.8748287334558665  0.3173676526311651   T   T   T
  0.2687421993710117  0.8846374397312431  0.0464864681272701   F   F   F
  0.6288621109649597  0.6995904720010202  0.1284261861000005   F   F   F
  0.2167532770830165  0.0322435807371654  0.2267414751306614   T   T   T
  0.5439688900712175  0.3719206807671955  0.3160581342019111   T   T   T
  0.5412157973262453  0.3693050226629708  0.0442518416318194   F   F   F
  0.5346594776952504  0.1354231570857014  0.3126151383551569   T   T   T
  0.5336944517523747  0.1355867285247427  0.0439851245909111   F   F   F
  0.8832888313795024  0.4470977980309314  0.1381582713954543   F   F   F
  0.1402232285351914  0.4469540011666240  0.1355590908681847   F   F   F
  0.0441561378820882  0.1241079906229799  0.3178953190259721   T   T   T
  0.0589967396284408  0.1018350567431128  0.0575243016954516   F   F   F
  0.1342935333655149  0.9375821956829213  0.1424705955181835   F   F   F
  0.4589026408401053  0.5253613635558947  0.2233063461499358   T   T   T
  0.3693613645044209  0.2161502974433560  0.1347813253954513   F   F   F
  0.1352238459015780  0.1985163722709657  0.1393178312181789   F   F   F
  0.9669872836078576  0.7818740388848759  0.2241129577511527   T   T   T
  0.7915423262105397  0.6231731847519719  0.3070807355934118   T   T   T
  0.2966487850864817  0.6198047485187842  0.3220207676913673   T   T   T
  0.8136378082480036  0.6035846078535201  0.0458125345909082   F   F   F
  0.2827328526180111  0.6136847731378765  0.0419772135318155   F   F   F
  0.3711045115008886  0.6919720544809493  0.1297637648999981   F   F   F
  0.3650899884529792  0.4537245194798061  0.1335287959590943   F   F   F
  0.2133982250503818  0.2905245915171452  0.2231792238169660   T   T   T
  0.7926651867654075  0.3717715882944976  0.3143412454045832   T   T   T
  0.7955667169556051  0.3623786591480993  0.0525784573590897   F   F   F
  0.9604094712396071  0.0351829649771347  0.2287619197578940   T   T   T
  0.4572404828680476  0.7809528113533866  0.2178368241143071   T   T   T
  0.7071148223220304  0.5337950777555639  0.2214834816887367   T   T   T
  0.2158885507292740  0.7733807012501086  0.2280823651515789   T   T   T
  0.4542514457002724  0.0456018307926831  0.2189611951209297   T   T   T
  0.1365430804763790  0.6811498989906610  0.1363537004090887   F   F   F
  0.7062012385705081  0.0450884193585005  0.2227691624125065   T   T   T
  0.7935762132237230  0.1263689774449369  0.3158331267011036   T   T   T
  0.5302982198118846  0.8802416807254272  0.3064432639191702   T   T   T
  0.7932310882983060  0.1130335594347969  0.0506874096272725   F   F   F
  0.5386045560987753  0.8807280389435022  0.0462069311772737   F   F   F
  0.2206759349005006  0.5225196200942220  0.2259178703675299   T   T   T
  0.9644466070031044  0.2846258471468607  0.2268573424150915   T   T   T
  0.8774744330611171  0.9478040731130761  0.1404896949318157   F   F   F
  0.7086930657631980  0.2872040426346424  0.2219947489974652   T   T   T
  0.4586984321685224  0.2860935761252777  0.2226855359312541   T   T   T
  0.8736685504789083  0.9594446627512191  0.4114756896708461   T   T   T
  0.1238119335878460  0.4583471367671806  0.4122485524209570   T   T   T
  0.1229118724403468  0.9617580024002323  0.4157834478269611   T   T   T
  0.8758681391716653  0.4590478494515990  0.4083862887464969   T   T   T
  0.3742621732863166  0.9612305026321424  0.4095600628902572   T   T   T
  0.8743279697821797  0.2092503264803629  0.4129591283531769   T   T   T
  0.1243268283930982  0.2100937110321685  0.4132917203838992   T   T   T
  0.6244682345075153  0.9586397696917991  0.4040781239517996   T   T   T
  0.8746480117199538  0.7099775367251072  0.4037791330413649   T   T   T
  0.3755021306895161  0.2078697078524916  0.4128317011388617   T   T   T
  0.3729186141388099  0.7128717336069551  0.4224343812090832   T   T   T
  0.6273774016047670  0.4564724041219125  0.4128597795698790   T   T   T
  0.1206439572232366  0.7106613937341277  0.4181545546472936   T   T   T
  0.6248195507150871  0.2077204346663394  0.4116401286565796   T   T   T
  0.3762786639951349  0.4537568360690203  0.4193937903842672   T   T   T
  0.6254900466717838  0.7110604510643238  0.4053904223760343   T   T   T
  0.2871070048163066  0.6274930838052557  0.4653839889667868   T   T   T
  0.5469905548045413  0.6323399686314214  0.4596015675179473   T   T   T
 
  0.00000000E+00  0.00000000E+00  0.00000000E+00
  0.00000000E+00  0.00000000E+00  0.00000000E+00
  0.00000000E+00  0.00000000E+00  0.00000000E+00
  0.00000000E+00  0.00000000E+00  0.00000000E+00
  0.00000000E+00  0.00000000E+00  0.00000000E+00
  0.00000000E+00  0.00000000E+00  0.00000000E+00
  0.00000000E+00  0.00000000E+00  0.00000000E+00
  0.00000000E+00  0.00000000E+00  0.00000000E+00
  0.00000000E+00  0.00000000E+00  0.00000000E+00
  0.00000000E+00  0.00000000E+00  0.00000000E+00
  0.00000000E+00  0.00000000E+00  0.00000000E+00
  0.00000000E+00  0.00000000E+00  0.00000000E+00
  0.00000000E+00  0.00000000E+00  0.00000000E+00
  0.00000000E+00  0.00000000E+00  0.00000000E+00
  0.00000000E+00  0.00000000E+00  0.00000000E+00
  0.00000000E+00  0.00000000E+00  0.00000000E+00
  0.00000000E+00  0.00000000E+00  0.00000000E+00
  0.00000000E+00  0.00000000E+00  0.00000000E+00
  0.00000000E+00  0.00000000E+00  0.00000000E+00
  0.00000000E+00  0.00000000E+00  0.00000000E+00
  0.00000000E+00  0.00000000E+00  0.00000000E+00
  0.00000000E+00  0.00000000E+00  0.00000000E+00
  0.00000000E+00  0.00000000E+00  0.00000000E+00
  0.00000000E+00  0.00000000E+00  0.00000000E+00
  0.00000000E+00  0.00000000E+00  0.00000000E+00
  0.00000000E+00  0.00000000E+00  0.00000000E+00
  0.00000000E+00  0.00000000E+00  0.00000000E+00
  0.00000000E+00  0.00000000E+00  0.00000000E+00
  0.00000000E+00  0.00000000E+00  0.00000000E+00
  0.00000000E+00  0.00000000E+00  0.00000000E+00
  0.00000000E+00  0.00000000E+00  0.00000000E+00
  0.00000000E+00  0.00000000E+00  0.00000000E+00
  0.00000000E+00  0.00000000E+00  0.00000000E+00
  0.00000000E+00  0.00000000E+00  0.00000000E+00
  0.00000000E+00  0.00000000E+00  0.00000000E+00
  0.00000000E+00  0.00000000E+00  0.00000000E+00
  0.00000000E+00  0.00000000E+00  0.00000000E+00
  0.00000000E+00  0.00000000E+00  0.00000000E+00
  0.00000000E+00  0.00000000E+00  0.00000000E+00
  0.00000000E+00  0.00000000E+00  0.00000000E+00
  0.00000000E+00  0.00000000E+00  0.00000000E+00
  0.00000000E+00  0.00000000E+00  0.00000000E+00
  0.00000000E+00  0.00000000E+00  0.00000000E+00
  0.00000000E+00  0.00000000E+00  0.00000000E+00
  0.00000000E+00  0.00000000E+00  0.00000000E+00
  0.00000000E+00  0.00000000E+00  0.00000000E+00
  0.00000000E+00  0.00000000E+00  0.00000000E+00
  0.00000000E+00  0.00000000E+00  0.00000000E+00
  0.00000000E+00  0.00000000E+00  0.00000000E+00
  0.00000000E+00  0.00000000E+00  0.00000000E+00
  0.00000000E+00  0.00000000E+00  0.00000000E+00
  0.00000000E+00  0.00000000E+00  0.00000000E+00
  0.00000000E+00  0.00000000E+00  0.00000000E+00
  0.00000000E+00  0.00000000E+00  0.00000000E+00
  0.00000000E+00  0.00000000E+00  0.00000000E+00
  0.00000000E+00  0.00000000E+00  0.00000000E+00
  0.00000000E+00  0.00000000E+00  0.00000000E+00
  0.00000000E+00  0.00000000E+00  0.00000000E+00
  0.00000000E+00  0.00000000E+00  0.00000000E+00
  0.00000000E+00  0.00000000E+00  0.00000000E+00
  0.00000000E+00  0.00000000E+00  0.00000000E+00
  0.00000000E+00  0.00000000E+00  0.00000000E+00
  0.00000000E+00  0.00000000E+00  0.00000000E+00
  0.00000000E+00  0.00000000E+00  0.00000000E+00
  0.00000000E+00  0.00000000E+00  0.00000000E+00
  0.00000000E+00  0.00000000E+00  0.00000000E+00
  0.00000000E+00  0.00000000E+00  0.00000000E+00
  0.00000000E+00  0.00000000E+00  0.00000000E+00
  0.00000000E+00  0.00000000E+00  0.00000000E+00
  0.00000000E+00  0.00000000E+00  0.00000000E+00
  0.00000000E+00  0.00000000E+00  0.00000000E+00
  0.00000000E+00  0.00000000E+00  0.00000000E+00
  0.00000000E+00  0.00000000E+00  0.00000000E+00
  0.00000000E+00  0.00000000E+00  0.00000000E+00
  0.00000000E+00  0.00000000E+00  0.00000000E+00
  0.00000000E+00  0.00000000E+00  0.00000000E+00
  0.00000000E+00  0.00000000E+00  0.00000000E+00
  0.00000000E+00  0.00000000E+00  0.00000000E+00
  0.00000000E+00  0.00000000E+00  0.00000000E+00
  0.00000000E+00  0.00000000E+00  0.00000000E+00
  0.00000000E+00  0.00000000E+00  0.00000000E+00
  0.00000000E+00  0.00000000E+00  0.00000000E+00
