PtM\(2)                                 
   1.00000000000000     
    10.5600004195999997    0.0000000000000000    0.0000000000000000
     5.2800002097999998    9.1452286273999999    0.0000000000000000
     0.0000000000000000    0.0000000000000000   22.0000000000000000
   Co   Pt   H 
    64    16     2
Selective dynamics
Direct
  0.7856548702379059  0.8694076293432363  0.3107795609727034   T   T   T
  0.0345839173466039  0.8698521527969838  0.3111139444889000   T   T   T
  0.0354895289746867  0.6190840636978557  0.3109582164759485   T   T   T
  0.7867273660717160  0.8679642656956403  0.0512459387681830   F   F   F
  0.0365582889316727  0.8681155879376945  0.0512968500727240   F   F   F
  0.0366385040692379  0.6180027208140757  0.0513268320045484   F   F   F
  0.6197458139953724  0.2015653887074080  0.1359842224363632   F   F   F
  0.3696581151044427  0.9516587404413883  0.1359628183681849   F   F   F
  0.0350503448877808  0.3690646281073520  0.3110903580149701   T   T   T
  0.0365963083346230  0.3681210410982487  0.0513400607590881   F   F   F
  0.8696445805581874  0.2016593805292644  0.1359685681136398   F   F   F
  0.9516206379859905  0.5358493122562848  0.2258699037178113   T   T   T
  0.2850662127338696  0.1190527284033978  0.3111041649241961   T   T   T
  0.5350248836291595  0.6192164837170107  0.3132399988635645   T   T   T
  0.2838409694166020  0.3679094784972408  0.3107784297275836   T   T   T
  0.2866892341020844  0.1181642286735496  0.0512986875090888   F   F   F
  0.5364312247542529  0.6180888009911953  0.0512321504227273   F   F   F
  0.2865494571265899  0.3680887902806873  0.0513541229409071   F   F   F
  0.6196855222964857  0.9516086189169641  0.1359457447227257   F   F   F
  0.7018259472986139  0.7855493806651846  0.2259481151743916   T   T   T
  0.8696068445877501  0.7016434521139203  0.1359744543409107   F   F   F
  0.6196787033340101  0.4516972511571211  0.1359518773045423   F   F   F
  0.2864969480005833  0.8667077364823025  0.3120900989069059   T   T   T
  0.2864484617105987  0.8681479668001657  0.0512844256863616   F   F   F
  0.6195877735811877  0.7016649391655889  0.1359121752636341   F   F   F
  0.2027291042988749  0.0341212332934886  0.2261347378200610   T   T   T
  0.5348039826457854  0.3710604899946985  0.3125035345114768   T   T   T
  0.5366727813368897  0.3679689281050500  0.0512926962318190   F   F   F
  0.5351990202337695  0.1193532246146613  0.3110030846059759   T   T   T
  0.5366727297449145  0.1180819610856503  0.0512831161363607   F   F   F
  0.8695347579033736  0.4517599086940010  0.1360032284090877   F   F   F
  0.1196881004386654  0.4516315490708749  0.1360589541590898   F   F   F
  0.0350581895042770  0.1189876768898526  0.3111861686655580   T   T   T
  0.0367073024034212  0.1181355239455755  0.0512976033590888   F   F   F
  0.1195841194112788  0.9517098196345941  0.1359996366499985   F   F   F
  0.4526030939604407  0.5361268749260147  0.2266202249225407   T   T   T
  0.3697648022638447  0.2016092602732655  0.1360238306954571   F   F   F
  0.1197124802163927  0.2016080101678313  0.1360219540863667   F   F   F
  0.9523291694201234  0.7855462254895160  0.2258065561295595   T   T   T
  0.7854167361261581  0.6194738651219358  0.3112007568089208   T   T   T
  0.2870025346430955  0.6189583239480461  0.3125384510174955   T   T   T
  0.7866122012324155  0.6180570610520562  0.0512491053409079   F   F   F
  0.2865146433568171  0.6180287077969808  0.0513054318772745   F   F   F
  0.3695989973367162  0.7017014523150777  0.1359655195227276   F   F   F
  0.3697484436136094  0.4516451135868707  0.1360192398909064   F   F   F
  0.2019370955256860  0.2853135110001622  0.2254575639150905   T   T   T
  0.7827028007178342  0.3705431240111801  0.3120824770107278   T   T   T
  0.7867185081021617  0.3680613783361437  0.0512697199636349   F   F   F
  0.9523006737225876  0.0356969682240020  0.2257568771963762   T   T   T
  0.4525447459049429  0.7842255496308581  0.2264739554428788   T   T   T
  0.7006234576758407  0.5362137360182232  0.2264927342535709   T   T   T
  0.2026994094116029  0.7847402614970266  0.2263131465168199   T   T   T
  0.4523649931956217  0.0351095290692256  0.2258621804143852   T   T   T
  0.1196483908887416  0.7016781133140881  0.1360106184272709   F   F   F
  0.7019308402267089  0.0358668655774315  0.2258491515239202   T   T   T
  0.7857223332642300  0.1188628278096906  0.3110481545136310   T   T   T
  0.5352909859109415  0.8695063431010550  0.3112168523742879   T   T   T
  0.7867138903031332  0.1180528005352812  0.0512607778181788   F   F   F
  0.5365868230827999  0.8681333544809533  0.0512481075045486   F   F   F
  0.2033389544472938  0.5360676065379741  0.2262549075749072   T   T   T
  0.9505894230396654  0.2862428799740629  0.2261309412247196   T   T   T
  0.8695596740848686  0.9516473608789653  0.1359644263590880   F   F   F
  0.7011062587129411  0.2863863352754720  0.2262956338386443   T   T   T
  0.4525741036860338  0.2867920732308546  0.2262597484277160   T   T   T
  0.8686003261669489  0.9533624493854305  0.4087128495085858   T   T   T
  0.1174643678771605  0.4524076665535604  0.4081308421963307   T   T   T
  0.1176025995504792  0.9537562391408032  0.4086819481510239   T   T   T
  0.8702234471862926  0.4518587889716645  0.4082239873054366   T   T   T
  0.3671187018540101  0.9549064254952317  0.4082477789903251   T   T   T
  0.8689653244333351  0.2023996112193991  0.4086321696865131   T   T   T
  0.1181582331175927  0.2028824213175628  0.4084868654065906   T   T   T
  0.6187173732436291  0.9540270978454204  0.4080931735025229   T   T   T
  0.8693655718896308  0.7034211889323577  0.4081009088875496   T   T   T
  0.3677341420214915  0.2021286724341975  0.4081454947507152   T   T   T
  0.3651153286493514  0.7062447436225278  0.4140392160700567   T   T   T
  0.6214305226444681  0.4499650221275087  0.4140574974314247   T   T   T
  0.1165793734491040  0.7041994345832879  0.4080748947384883   T   T   T
  0.6194866952754615  0.2013053362105072  0.4080790461172505   T   T   T
  0.3651418816204667  0.4498462490067293  0.4112315900516036   T   T   T
  0.6216359205046722  0.7063822254655552  0.4113998211443764   T   T   T
  0.4383197481507008  0.5238543279035358  0.4596261080085386   T   T   T
  0.5495849156565800  0.6333116224876527  0.4599070286516869   T   T   T
 
  0.00000000E+00  0.00000000E+00  0.00000000E+00
  0.00000000E+00  0.00000000E+00  0.00000000E+00
  0.00000000E+00  0.00000000E+00  0.00000000E+00
  0.00000000E+00  0.00000000E+00  0.00000000E+00
  0.00000000E+00  0.00000000E+00  0.00000000E+00
  0.00000000E+00  0.00000000E+00  0.00000000E+00
  0.00000000E+00  0.00000000E+00  0.00000000E+00
  0.00000000E+00  0.00000000E+00  0.00000000E+00
  0.00000000E+00  0.00000000E+00  0.00000000E+00
  0.00000000E+00  0.00000000E+00  0.00000000E+00
  0.00000000E+00  0.00000000E+00  0.00000000E+00
  0.00000000E+00  0.00000000E+00  0.00000000E+00
  0.00000000E+00  0.00000000E+00  0.00000000E+00
  0.00000000E+00  0.00000000E+00  0.00000000E+00
  0.00000000E+00  0.00000000E+00  0.00000000E+00
  0.00000000E+00  0.00000000E+00  0.00000000E+00
  0.00000000E+00  0.00000000E+00  0.00000000E+00
  0.00000000E+00  0.00000000E+00  0.00000000E+00
  0.00000000E+00  0.00000000E+00  0.00000000E+00
  0.00000000E+00  0.00000000E+00  0.00000000E+00
  0.00000000E+00  0.00000000E+00  0.00000000E+00
  0.00000000E+00  0.00000000E+00  0.00000000E+00
  0.00000000E+00  0.00000000E+00  0.00000000E+00
  0.00000000E+00  0.00000000E+00  0.00000000E+00
  0.00000000E+00  0.00000000E+00  0.00000000E+00
  0.00000000E+00  0.00000000E+00  0.00000000E+00
  0.00000000E+00  0.00000000E+00  0.00000000E+00
  0.00000000E+00  0.00000000E+00  0.00000000E+00
  0.00000000E+00  0.00000000E+00  0.00000000E+00
  0.00000000E+00  0.00000000E+00  0.00000000E+00
  0.00000000E+00  0.00000000E+00  0.00000000E+00
  0.00000000E+00  0.00000000E+00  0.00000000E+00
  0.00000000E+00  0.00000000E+00  0.00000000E+00
  0.00000000E+00  0.00000000E+00  0.00000000E+00
  0.00000000E+00  0.00000000E+00  0.00000000E+00
  0.00000000E+00  0.00000000E+00  0.00000000E+00
  0.00000000E+00  0.00000000E+00  0.00000000E+00
  0.00000000E+00  0.00000000E+00  0.00000000E+00
  0.00000000E+00  0.00000000E+00  0.00000000E+00
  0.00000000E+00  0.00000000E+00  0.00000000E+00
  0.00000000E+00  0.00000000E+00  0.00000000E+00
  0.00000000E+00  0.00000000E+00  0.00000000E+00
  0.00000000E+00  0.00000000E+00  0.00000000E+00
  0.00000000E+00  0.00000000E+00  0.00000000E+00
  0.00000000E+00  0.00000000E+00  0.00000000E+00
  0.00000000E+00  0.00000000E+00  0.00000000E+00
  0.00000000E+00  0.00000000E+00  0.00000000E+00
  0.00000000E+00  0.00000000E+00  0.00000000E+00
  0.00000000E+00  0.00000000E+00  0.00000000E+00
  0.00000000E+00  0.00000000E+00  0.00000000E+00
  0.00000000E+00  0.00000000E+00  0.00000000E+00
  0.00000000E+00  0.00000000E+00  0.00000000E+00
  0.00000000E+00  0.00000000E+00  0.00000000E+00
  0.00000000E+00  0.00000000E+00  0.00000000E+00
  0.00000000E+00  0.00000000E+00  0.00000000E+00
  0.00000000E+00  0.00000000E+00  0.00000000E+00
  0.00000000E+00  0.00000000E+00  0.00000000E+00
  0.00000000E+00  0.00000000E+00  0.00000000E+00
  0.00000000E+00  0.00000000E+00  0.00000000E+00
  0.00000000E+00  0.00000000E+00  0.00000000E+00
  0.00000000E+00  0.00000000E+00  0.00000000E+00
  0.00000000E+00  0.00000000E+00  0.00000000E+00
  0.00000000E+00  0.00000000E+00  0.00000000E+00
  0.00000000E+00  0.00000000E+00  0.00000000E+00
  0.00000000E+00  0.00000000E+00  0.00000000E+00
  0.00000000E+00  0.00000000E+00  0.00000000E+00
  0.00000000E+00  0.00000000E+00  0.00000000E+00
  0.00000000E+00  0.00000000E+00  0.00000000E+00
  0.00000000E+00  0.00000000E+00  0.00000000E+00
  0.00000000E+00  0.00000000E+00  0.00000000E+00
  0.00000000E+00  0.00000000E+00  0.00000000E+00
  0.00000000E+00  0.00000000E+00  0.00000000E+00
  0.00000000E+00  0.00000000E+00  0.00000000E+00
  0.00000000E+00  0.00000000E+00  0.00000000E+00
  0.00000000E+00  0.00000000E+00  0.00000000E+00
  0.00000000E+00  0.00000000E+00  0.00000000E+00
  0.00000000E+00  0.00000000E+00  0.00000000E+00
  0.00000000E+00  0.00000000E+00  0.00000000E+00
  0.00000000E+00  0.00000000E+00  0.00000000E+00
  0.00000000E+00  0.00000000E+00  0.00000000E+00
  0.00000000E+00  0.00000000E+00  0.00000000E+00
  0.00000000E+00  0.00000000E+00  0.00000000E+00
