Pt111                                   
   1.00000000000000     
    11.2227001190000006    0.0000000000000000    0.0000000000000000
     5.6113500595000003    9.7191434021000003    0.0000000000000000
     0.0000000000000000    0.0000000000000000   22.0000000000000000
   Pt   H 
    80     1
Direct
  0.7848512825469580  0.8691879846162910  0.3268368916925687
  0.0349506374147070  0.8691916607262496  0.3267850276254438
  0.0349681439667329  0.6190949454760373  0.3267847429410246
  0.7862800733264191  0.8682302335667976  0.0225670580896445
  0.0364384289575722  0.8680609123406765  0.0226856172377567
  0.0364228412020915  0.6182202209624820  0.0226805842976663
  0.6189758229697856  0.2020979939630763  0.1260885187249537
  0.3693140330301033  0.9516241768426815  0.1260459576789523
  0.0348991446712620  0.3691566669895337  0.3266431598138909
  0.0361788601386184  0.3685782103629268  0.0227088107239509
  0.8688471424392554  0.2020294336463604  0.1260521634149819
  0.9519264616508590  0.5356547452029070  0.2264349891004357
  0.2848178583347224  0.1192334926636278  0.3266745735594550
  0.5347055173484153  0.6189929133794604  0.3278042395064321
  0.2851882777340301  0.3694612374784814  0.3271057028584930
  0.2866648073203145  0.1180272390618541  0.0227513006878055
  0.5363674575412585  0.6181341683654633  0.0228022684457092
  0.2863915428576769  0.3682318987564177  0.0227333503611227
  0.6191969660040563  0.9518451946024542  0.1259728282362263
  0.7019676186438588  0.7854835994542900  0.2263984765097491
  0.8691370781143277  0.7019650235728008  0.1259463243490030
  0.6188595638574650  0.4520258954547837  0.1262610686224329
  0.2851342192046197  0.8686503586413498  0.3270892949410951
  0.2863455172146207  0.8681294905190233  0.0227238204599747
  0.6190272711796099  0.7018223024332445  0.1260977723064185
  0.2018501195449275  0.0358712550712954  0.2261802919130586
  0.8678440763105367  0.9527212633036175  0.4303327414568463
  0.1171889249072486  0.4526575754883572  0.4301433670148446
  0.1171533589013458  0.9535140878982404  0.4301592636660281
  0.8685144250073148  0.4527039889336786  0.4301820465332520
  0.3677487957090701  0.9534542607051356  0.4301873755525952
  0.8685138209253697  0.2021242416042806  0.4301681274949493
  0.1177377645599667  0.2027917040913446  0.4300456217542200
  0.6177142935920331  0.9527792416289007  0.4303161291489815
  0.8678788307905222  0.7027053112656179  0.4303103907733288
  0.3676862417272289  0.2021706912194472  0.4301855044147628
  0.3652405490061119  0.7078809573330423  0.4320135285762478
  0.6228507518782873  0.4502418513559053  0.4320157276587324
  0.1146949529630305  0.7043068985799279  0.4301267780433669
  0.6193363181507374  0.1995481535085952  0.4302009830345179
  0.5347457610595130  0.3694896187931070  0.3278107644826804
  0.5362999606212608  0.3683330369605927  0.0228043355866494
  0.5348710020288500  0.1191844079250651  0.3268065908451889
  0.5364073131424963  0.1182011611489611  0.0226946124864499
  0.8688488054928178  0.4520924555570323  0.1260435934797309
  0.1192131737046621  0.4520863784605706  0.1260449225212855
  0.0349275983382160  0.1191551583463804  0.3266343460416018
  0.0361642110944267  0.1179866292349570  0.0227279019036386
  0.1192202285993166  0.9516317002694081  0.1260554316499609
  0.3653367369144642  0.4502042949897005  0.4320125503042088
  0.4519465321371129  0.5356010571781270  0.2270543000032781
  0.6193725744798381  0.7043786913466864  0.4301577235621488
  0.3693131359179077  0.2019887131366248  0.1260565912683189
  0.1190331488225768  0.2019819612192887  0.1254658026459570
  0.9520467657660032  0.7855306249135202  0.2263938486395910
  0.7848561920515763  0.6191523748259172  0.3268034925711713
  0.2852412280439689  0.6190271429620436  0.3277899721488476
  0.7863014759458283  0.6182215288136510  0.0226957846460506
  0.2864847936484798  0.6181217200920881  0.0228290513005161
  0.3692583949739939  0.7016854194684896  0.1262318620069422
  0.3692569353809344  0.4519788326252013  0.1262555462450908
  0.2018589480637609  0.2854184876060178  0.2261930321243622
  0.7842802673880671  0.3694678985199294  0.3271212691878830
  0.7862188177298345  0.3682346507694085  0.0227349294420967
  0.9519241633560789  0.0355358100867085  0.2264282561205938
  0.4518648845095694  0.7854948349361195  0.2266143699415922
  0.7018910973371609  0.5354562929554316  0.2266301948239176
  0.2022117762900949  0.7854295400748744  0.2266135330251171
  0.4520153242198300  0.0355863943461056  0.2264430687497953
  0.1192959244392143  0.7018047129573672  0.1261048279435881
  0.7019573644224997  0.0356599285747673  0.2263975340501796
  0.7848734409334536  0.1192295841716185  0.3268179153551563
  0.5348196824030043  0.8692031669609961  0.3267804664252009
  0.7862871364270130  0.1182238332837106  0.0227171700966404
  0.5363985297314090  0.8681113131543071  0.0226914235324904
  0.2021965239350831  0.5354402560929447  0.2266306551165219
  0.9522067179985725  0.2854531589219125  0.2262034807560142
  0.8691293525423256  0.9518478548899344  0.1259481550277345
  0.7018981551127736  0.2857277772235751  0.2266223432162120
  0.4518882993087754  0.2857822085104229  0.2266352634263649
  0.4510165440441735  0.5361799856297363  0.4697107140783032
 
  0.00000000E+00  0.00000000E+00  0.00000000E+00
  0.00000000E+00  0.00000000E+00  0.00000000E+00
  0.00000000E+00  0.00000000E+00  0.00000000E+00
  0.00000000E+00  0.00000000E+00  0.00000000E+00
  0.00000000E+00  0.00000000E+00  0.00000000E+00
  0.00000000E+00  0.00000000E+00  0.00000000E+00
  0.00000000E+00  0.00000000E+00  0.00000000E+00
  0.00000000E+00  0.00000000E+00  0.00000000E+00
  0.00000000E+00  0.00000000E+00  0.00000000E+00
  0.00000000E+00  0.00000000E+00  0.00000000E+00
  0.00000000E+00  0.00000000E+00  0.00000000E+00
  0.00000000E+00  0.00000000E+00  0.00000000E+00
  0.00000000E+00  0.00000000E+00  0.00000000E+00
  0.00000000E+00  0.00000000E+00  0.00000000E+00
  0.00000000E+00  0.00000000E+00  0.00000000E+00
  0.00000000E+00  0.00000000E+00  0.00000000E+00
  0.00000000E+00  0.00000000E+00  0.00000000E+00
  0.00000000E+00  0.00000000E+00  0.00000000E+00
  0.00000000E+00  0.00000000E+00  0.00000000E+00
  0.00000000E+00  0.00000000E+00  0.00000000E+00
  0.00000000E+00  0.00000000E+00  0.00000000E+00
  0.00000000E+00  0.00000000E+00  0.00000000E+00
  0.00000000E+00  0.00000000E+00  0.00000000E+00
  0.00000000E+00  0.00000000E+00  0.00000000E+00
  0.00000000E+00  0.00000000E+00  0.00000000E+00
  0.00000000E+00  0.00000000E+00  0.00000000E+00
  0.00000000E+00  0.00000000E+00  0.00000000E+00
  0.00000000E+00  0.00000000E+00  0.00000000E+00
  0.00000000E+00  0.00000000E+00  0.00000000E+00
  0.00000000E+00  0.00000000E+00  0.00000000E+00
  0.00000000E+00  0.00000000E+00  0.00000000E+00
  0.00000000E+00  0.00000000E+00  0.00000000E+00
  0.00000000E+00  0.00000000E+00  0.00000000E+00
  0.00000000E+00  0.00000000E+00  0.00000000E+00
  0.00000000E+00  0.00000000E+00  0.00000000E+00
  0.00000000E+00  0.00000000E+00  0.00000000E+00
  0.00000000E+00  0.00000000E+00  0.00000000E+00
  0.00000000E+00  0.00000000E+00  0.00000000E+00
  0.00000000E+00  0.00000000E+00  0.00000000E+00
  0.00000000E+00  0.00000000E+00  0.00000000E+00
  0.00000000E+00  0.00000000E+00  0.00000000E+00
  0.00000000E+00  0.00000000E+00  0.00000000E+00
  0.00000000E+00  0.00000000E+00  0.00000000E+00
  0.00000000E+00  0.00000000E+00  0.00000000E+00
  0.00000000E+00  0.00000000E+00  0.00000000E+00
  0.00000000E+00  0.00000000E+00  0.00000000E+00
  0.00000000E+00  0.00000000E+00  0.00000000E+00
  0.00000000E+00  0.00000000E+00  0.00000000E+00
  0.00000000E+00  0.00000000E+00  0.00000000E+00
  0.00000000E+00  0.00000000E+00  0.00000000E+00
  0.00000000E+00  0.00000000E+00  0.00000000E+00
  0.00000000E+00  0.00000000E+00  0.00000000E+00
  0.00000000E+00  0.00000000E+00  0.00000000E+00
  0.00000000E+00  0.00000000E+00  0.00000000E+00
  0.00000000E+00  0.00000000E+00  0.00000000E+00
  0.00000000E+00  0.00000000E+00  0.00000000E+00
  0.00000000E+00  0.00000000E+00  0.00000000E+00
  0.00000000E+00  0.00000000E+00  0.00000000E+00
  0.00000000E+00  0.00000000E+00  0.00000000E+00
  0.00000000E+00  0.00000000E+00  0.00000000E+00
  0.00000000E+00  0.00000000E+00  0.00000000E+00
  0.00000000E+00  0.00000000E+00  0.00000000E+00
  0.00000000E+00  0.00000000E+00  0.00000000E+00
  0.00000000E+00  0.00000000E+00  0.00000000E+00
  0.00000000E+00  0.00000000E+00  0.00000000E+00
  0.00000000E+00  0.00000000E+00  0.00000000E+00
  0.00000000E+00  0.00000000E+00  0.00000000E+00
  0.00000000E+00  0.00000000E+00  0.00000000E+00
  0.00000000E+00  0.00000000E+00  0.00000000E+00
  0.00000000E+00  0.00000000E+00  0.00000000E+00
  0.00000000E+00  0.00000000E+00  0.00000000E+00
  0.00000000E+00  0.00000000E+00  0.00000000E+00
  0.00000000E+00  0.00000000E+00  0.00000000E+00
  0.00000000E+00  0.00000000E+00  0.00000000E+00
  0.00000000E+00  0.00000000E+00  0.00000000E+00
  0.00000000E+00  0.00000000E+00  0.00000000E+00
  0.00000000E+00  0.00000000E+00  0.00000000E+00
  0.00000000E+00  0.00000000E+00  0.00000000E+00
  0.00000000E+00  0.00000000E+00  0.00000000E+00
  0.00000000E+00  0.00000000E+00  0.00000000E+00
  0.00000000E+00  0.00000000E+00  0.00000000E+00
