Pt111\(1\1\1)\(2)                       
   1.00000000000000     
    10.5600004195999997    0.0000000000000000    0.0000000000000000
    -5.2800002097999998    9.1452286273999999    0.0000000000000000
     0.0000000000000000    0.0000000000000000   20.0000000000000000
   Pt
    64
Direct
  0.9999984446217596  0.0000015553782404  0.0557922949174099
  0.3333317286539383  0.1666682603460643  0.1775239735958252
  0.1666682573460605  0.3333317136539407  0.2972960324041765
  0.0000015553782404  0.9999984446217596  0.4190277350825866
  0.9999984416217629  0.2500015483782434  0.0557922949174099
  0.3333317206539377  0.4166682673460613  0.1775239735958252
  0.1666682613460608  0.0833317196539411  0.2972960324041765
  0.0000015523782437  0.2499984376217625  0.4190277350825866
  0.2499984416217629  0.2500015483782434  0.0557922949174099
  0.0833317206539377  0.4166682673460613  0.1775239735958252
  0.4166682723460653  0.0833317196539411  0.2972960324041765
  0.2500015523782437  0.2499984376217625  0.4190277350825866
  0.2499984446217596  0.0000015553782404  0.0557922949174099
  0.0833317236539415  0.1666682603460643  0.1775239735958252
  0.4166682573460605  0.3333317136539407  0.2972960324041765
  0.2500015553782404  0.9999984446217596  0.4190277350825866
  0.4999984446217596  0.0000015553782404  0.0557922949174099
  0.8333316836539382  0.1666682603460643  0.1775239735958252
  0.6666682803460589  0.3333317136539407  0.2972960324041765
  0.5000015553782404  0.9999984446217596  0.4190277350825866
  0.4999984296217619  0.2500015483782434  0.0557922949174099
  0.8333316756539375  0.4166682673460613  0.1775239735958252
  0.6666682953460636  0.0833317196539411  0.2972960324041765
  0.5000015403782427  0.2499984376217625  0.4190277350825866
  0.7499984076217601  0.2500015483782434  0.0557922949174099
  0.5833316756539375  0.4166682673460613  0.1775239735958252
  0.9166682723460653  0.0833317196539411  0.2972960324041765
  0.7500015183782409  0.2499984376217625  0.4190277350825866
  0.7499984216217612  0.0000015553782404  0.0557922949174099
  0.5833316616539364  0.1666682603460643  0.1775239735958252
  0.9166682573460605  0.3333317136539407  0.2972960324041765
  0.7500015323782421  0.9999984446217596  0.4190277350825866
  0.9999984376217625  0.5000015423782429  0.0557922949174099
  0.3333317066539365  0.6666682603460643  0.1775239735958252
  0.1666682513460600  0.8333316996539395  0.2972960324041765
  0.0000015483782434  0.4999984316217621  0.4190277350825866
  0.9999984326217586  0.7500015093782437  0.0557922949174099
  0.3333317276539347  0.9166682803460589  0.1775239735958252
  0.1666682643460646  0.5833316806539344  0.2972960324041765
  0.0000015433782394  0.7499983986217629  0.4190277350825866
  0.2499984326217586  0.7500015093782437  0.0557922949174099
  0.0833317276539347  0.9166682803460589  0.1775239735958252
  0.4166682753460620  0.5833316806539344  0.2972960324041765
  0.2500015433782394  0.7499983986217629  0.4190277350825866
  0.2499984376217625  0.5000015423782429  0.0557922949174099
  0.0833317066539365  0.6666682603460643  0.1775239735958252
  0.4166682733460618  0.8333316996539395  0.2972960324041765
  0.2500015483782434  0.4999984316217621  0.4190277350825866
  0.4999984376217625  0.5000015423782429  0.0557922949174099
  0.8333317066539365  0.6666682603460643  0.1775239735958252
  0.6666682963460602  0.8333316996539395  0.2972960324041765
  0.5000015483782434  0.4999984316217621  0.4190277350825866
  0.4999984326217586  0.7500015093782437  0.0557922949174099
  0.8333317046539364  0.9166682803460589  0.1775239735958252
  0.6666682983460603  0.5833316806539344  0.2972960324041765
  0.5000015433782394  0.7499983986217629  0.4190277350825866
  0.7499984106217568  0.7500015093782437  0.0557922949174099
  0.5833316826539345  0.9166682803460589  0.1775239735958252
  0.9166682753460620  0.5833316806539344  0.2972960324041765
  0.7500015213782376  0.7499983986217629  0.4190277350825866
  0.7499983926217624  0.5000015423782429  0.0557922949174099
  0.5833316616539364  0.6666682603460643  0.1775239735958252
  0.9166682733460618  0.8333316996539395  0.2972960324041765
  0.7500015033782432  0.4999984316217621  0.4190277350825866
 
  0.00000000E+00  0.00000000E+00  0.00000000E+00
  0.00000000E+00  0.00000000E+00  0.00000000E+00
  0.00000000E+00  0.00000000E+00  0.00000000E+00
  0.00000000E+00  0.00000000E+00  0.00000000E+00
  0.00000000E+00  0.00000000E+00  0.00000000E+00
  0.00000000E+00  0.00000000E+00  0.00000000E+00
  0.00000000E+00  0.00000000E+00  0.00000000E+00
  0.00000000E+00  0.00000000E+00  0.00000000E+00
  0.00000000E+00  0.00000000E+00  0.00000000E+00
  0.00000000E+00  0.00000000E+00  0.00000000E+00
  0.00000000E+00  0.00000000E+00  0.00000000E+00
  0.00000000E+00  0.00000000E+00  0.00000000E+00
  0.00000000E+00  0.00000000E+00  0.00000000E+00
  0.00000000E+00  0.00000000E+00  0.00000000E+00
  0.00000000E+00  0.00000000E+00  0.00000000E+00
  0.00000000E+00  0.00000000E+00  0.00000000E+00
  0.00000000E+00  0.00000000E+00  0.00000000E+00
  0.00000000E+00  0.00000000E+00  0.00000000E+00
  0.00000000E+00  0.00000000E+00  0.00000000E+00
  0.00000000E+00  0.00000000E+00  0.00000000E+00
  0.00000000E+00  0.00000000E+00  0.00000000E+00
  0.00000000E+00  0.00000000E+00  0.00000000E+00
  0.00000000E+00  0.00000000E+00  0.00000000E+00
  0.00000000E+00  0.00000000E+00  0.00000000E+00
  0.00000000E+00  0.00000000E+00  0.00000000E+00
  0.00000000E+00  0.00000000E+00  0.00000000E+00
  0.00000000E+00  0.00000000E+00  0.00000000E+00
  0.00000000E+00  0.00000000E+00  0.00000000E+00
  0.00000000E+00  0.00000000E+00  0.00000000E+00
  0.00000000E+00  0.00000000E+00  0.00000000E+00
  0.00000000E+00  0.00000000E+00  0.00000000E+00
  0.00000000E+00  0.00000000E+00  0.00000000E+00
  0.00000000E+00  0.00000000E+00  0.00000000E+00
  0.00000000E+00  0.00000000E+00  0.00000000E+00
  0.00000000E+00  0.00000000E+00  0.00000000E+00
  0.00000000E+00  0.00000000E+00  0.00000000E+00
  0.00000000E+00  0.00000000E+00  0.00000000E+00
  0.00000000E+00  0.00000000E+00  0.00000000E+00
  0.00000000E+00  0.00000000E+00  0.00000000E+00
  0.00000000E+00  0.00000000E+00  0.00000000E+00
  0.00000000E+00  0.00000000E+00  0.00000000E+00
  0.00000000E+00  0.00000000E+00  0.00000000E+00
  0.00000000E+00  0.00000000E+00  0.00000000E+00
  0.00000000E+00  0.00000000E+00  0.00000000E+00
  0.00000000E+00  0.00000000E+00  0.00000000E+00
  0.00000000E+00  0.00000000E+00  0.00000000E+00
  0.00000000E+00  0.00000000E+00  0.00000000E+00
  0.00000000E+00  0.00000000E+00  0.00000000E+00
  0.00000000E+00  0.00000000E+00  0.00000000E+00
  0.00000000E+00  0.00000000E+00  0.00000000E+00
  0.00000000E+00  0.00000000E+00  0.00000000E+00
  0.00000000E+00  0.00000000E+00  0.00000000E+00
  0.00000000E+00  0.00000000E+00  0.00000000E+00
  0.00000000E+00  0.00000000E+00  0.00000000E+00
  0.00000000E+00  0.00000000E+00  0.00000000E+00
  0.00000000E+00  0.00000000E+00  0.00000000E+00
  0.00000000E+00  0.00000000E+00  0.00000000E+00
  0.00000000E+00  0.00000000E+00  0.00000000E+00
  0.00000000E+00  0.00000000E+00  0.00000000E+00
  0.00000000E+00  0.00000000E+00  0.00000000E+00
  0.00000000E+00  0.00000000E+00  0.00000000E+00
  0.00000000E+00  0.00000000E+00  0.00000000E+00
  0.00000000E+00  0.00000000E+00  0.00000000E+00
  0.00000000E+00  0.00000000E+00  0.00000000E+00
