Pt   H                                  
   1.00000000000000     
    10.5600004195999997    0.0000000000000000    0.0000000000000000
    -5.2800002097999998    9.1452286273999999    0.0000000000000000
     0.0000000000000000    0.0000000000000000   20.0000000000000000
   Pt   H 
    64     2
Selective dynamics
Direct
  0.9999984446215961  0.0000015553793773  0.0557922949150012   F   F   F
  0.3335438154462172  0.1684384012057195  0.1791041759476600   T   T   T
  0.1672712406585250  0.3331674400403069  0.3062431525983159   T   T   T
 -0.0004557122196843 -0.0004423120060561  0.4161402985179384   T   T   T
  0.9999984416169312  0.2500015483757210  0.0557922949150012   F   F   F
  0.3335075158941970  0.4168164498913224  0.1868387916459793   T   T   T
  0.1682100638139727  0.0854017087352593  0.2992351543359402   T   T   T
  0.9995870813869249  0.2494847844428747  0.4218560239951057   T   T   T
  0.2499984416169312  0.2500015483757210  0.0557922949150012   F   F   F
  0.0851102377708815  0.4162717791688629  0.1782589381786468   T   T   T
  0.4167983969194308  0.0836397916950081  0.2958726659813457   T   T   T
  0.2487289855930605  0.2486841031507754  0.4299294961756424   T   T   T
  0.2499984446215961  0.0000015553793773  0.0557922949150012   F   F   F
  0.0851782194751276  0.1682709564065509  0.1798454327110753   T   T   T
  0.4159137025879819  0.3337066816715913  0.3058018744139347   T   T   T
  0.2497328598740193 -0.0005752329507750  0.4176898970172779   T   T   T
  0.4999984446215961  0.0000015553793773  0.0557922949150012   F   F   F
  0.8342269312076680  0.1668477354712274  0.1770600831179555   T   T   T
  0.6658569501971201  0.3327332478906055  0.2955366082746608   T   T   T
  0.4998248978715808  0.9995498480045052  0.4170892015081513   T   T   T
  0.4999984296188273  0.2500015483757210  0.0557922949150012   F   F   F
  0.8330990615450772  0.4160538395582538  0.1751916308417687   T   T   T
  0.6665520610339868  0.0829064728237623  0.2962177199082268   T   T   T
  0.4996470905986253  0.2495096629842762  0.4192100798934930   T   T   T
  0.7499984076207227  0.2500015483757210  0.0557922949150012   F   F   F
  0.5817131719531758  0.4166784555805547  0.1789016791578633   T   T   T
  0.9168460258907924  0.0836803126639187  0.2968734825512782   T   T   T
  0.7496689344756667  0.2493791677412646  0.4167182829721475   T   T   T
  0.7499984216197078  0.0000015553793773  0.0557922949150012   F   F   F
  0.5830414161118115  0.1670298470753547  0.1761251714933335   T   T   T
  0.9171560512061175  0.3322094177123667  0.2958133916457710   T   T   T
  0.7495282434322854  0.9995872175738501  0.4185373166591195   T   T   T
  0.9999984376190483  0.5000015423780582  0.0557922949150012   F   F   F
  0.3340819177465202  0.6653144064510208  0.1786627847711553   T   T   T
  0.1676288049899982  0.8339155907196578  0.2922910121038929   T   T   T
  0.9997179234996195  0.4993478580675166  0.4139977899100439   T   T   T
  0.9999984326223199  0.7500015093827130  0.0557922949150012   F   F   F
  0.3341752125861745  0.9171042726545493  0.1755109115030734   T   T   T
  0.1678421500181106  0.5819680211701865  0.2958433204958963   T   T   T
  0.9996207784366518  0.7495823503224921  0.4104351015736275   T   T   T
  0.2499984326223199  0.7500015093827130  0.0557922949150012   F   F   F
  0.0843395402423618  0.9184423706912215  0.1750808485925918   T   T   T
  0.4165290074018652  0.5824649914706493  0.3067139590124572   T   T   T
  0.2498458787912764  0.7495062887596083  0.4148458797096941   T   T   T
  0.2499984376190483  0.5000015423780582  0.0557922949150012   F   F   F
  0.0840541374401546  0.6663564086891549  0.1740829593819501   T   T   T
  0.4173144780509185  0.8323512748283833  0.2965592861049187   T   T   T
  0.2489050092802081  0.5001608887915603  0.4276019420677316   T   T   T
  0.4999984376190483  0.5000015423780582  0.0557922949150012   F   F   F
  0.8318235258258965  0.6660056464539138  0.1749862679374452   T   T   T
  0.6658051574021288  0.8326741875739163  0.2972037015675166   T   T   T
  0.5003737157995215  0.5002565061017429  0.4298748375587888   T   T   T
  0.4999984326223199  0.7500015093827130  0.0557922949150012   F   F   F
  0.8330768506156631  0.9170796285739858  0.1753595460590324   T   T   T
  0.6642053077657536  0.5815114938334215  0.2990767065870637   T   T   T
  0.4996900817230628  0.7496096443075509  0.4226681102283842   T   T   T
  0.7499984106242152  0.7500015093827130  0.0557922949150012   F   F   F
  0.5832412680397383  0.9158968306979939  0.1773614697794920   T   T   T
  0.9157382322358266  0.5821554076384182  0.2919307666921909   T   T   T
  0.7495786069148846  0.7496303417037669  0.4163929206281839   T   T   T
  0.7499983926190481  0.5000015423780582  0.0557922949150012   F   F   F
  0.5819486755168356  0.6651586133028193  0.1800524174260895   T   T   T
  0.9159187972738227  0.8336934653529313  0.2920856648339137   T   T   T
  0.7497186297012203  0.4994456490963406  0.4171401016814601   T   T   T
  0.3527687990355516  0.3934175493302284  0.5399258207168121   T   T   T
  0.3999255942439682  0.3570588691582699  0.5410748409450569   T   T   T
 
  0.00000000E+00  0.00000000E+00  0.00000000E+00
  0.00000000E+00  0.00000000E+00  0.00000000E+00
  0.00000000E+00  0.00000000E+00  0.00000000E+00
  0.00000000E+00  0.00000000E+00  0.00000000E+00
  0.00000000E+00  0.00000000E+00  0.00000000E+00
  0.00000000E+00  0.00000000E+00  0.00000000E+00
  0.00000000E+00  0.00000000E+00  0.00000000E+00
  0.00000000E+00  0.00000000E+00  0.00000000E+00
  0.00000000E+00  0.00000000E+00  0.00000000E+00
  0.00000000E+00  0.00000000E+00  0.00000000E+00
  0.00000000E+00  0.00000000E+00  0.00000000E+00
  0.00000000E+00  0.00000000E+00  0.00000000E+00
  0.00000000E+00  0.00000000E+00  0.00000000E+00
  0.00000000E+00  0.00000000E+00  0.00000000E+00
  0.00000000E+00  0.00000000E+00  0.00000000E+00
  0.00000000E+00  0.00000000E+00  0.00000000E+00
  0.00000000E+00  0.00000000E+00  0.00000000E+00
  0.00000000E+00  0.00000000E+00  0.00000000E+00
  0.00000000E+00  0.00000000E+00  0.00000000E+00
  0.00000000E+00  0.00000000E+00  0.00000000E+00
  0.00000000E+00  0.00000000E+00  0.00000000E+00
  0.00000000E+00  0.00000000E+00  0.00000000E+00
  0.00000000E+00  0.00000000E+00  0.00000000E+00
  0.00000000E+00  0.00000000E+00  0.00000000E+00
  0.00000000E+00  0.00000000E+00  0.00000000E+00
  0.00000000E+00  0.00000000E+00  0.00000000E+00
  0.00000000E+00  0.00000000E+00  0.00000000E+00
  0.00000000E+00  0.00000000E+00  0.00000000E+00
  0.00000000E+00  0.00000000E+00  0.00000000E+00
  0.00000000E+00  0.00000000E+00  0.00000000E+00
  0.00000000E+00  0.00000000E+00  0.00000000E+00
  0.00000000E+00  0.00000000E+00  0.00000000E+00
  0.00000000E+00  0.00000000E+00  0.00000000E+00
  0.00000000E+00  0.00000000E+00  0.00000000E+00
  0.00000000E+00  0.00000000E+00  0.00000000E+00
  0.00000000E+00  0.00000000E+00  0.00000000E+00
  0.00000000E+00  0.00000000E+00  0.00000000E+00
  0.00000000E+00  0.00000000E+00  0.00000000E+00
  0.00000000E+00  0.00000000E+00  0.00000000E+00
  0.00000000E+00  0.00000000E+00  0.00000000E+00
  0.00000000E+00  0.00000000E+00  0.00000000E+00
  0.00000000E+00  0.00000000E+00  0.00000000E+00
  0.00000000E+00  0.00000000E+00  0.00000000E+00
  0.00000000E+00  0.00000000E+00  0.00000000E+00
  0.00000000E+00  0.00000000E+00  0.00000000E+00
  0.00000000E+00  0.00000000E+00  0.00000000E+00
  0.00000000E+00  0.00000000E+00  0.00000000E+00
  0.00000000E+00  0.00000000E+00  0.00000000E+00
  0.00000000E+00  0.00000000E+00  0.00000000E+00
  0.00000000E+00  0.00000000E+00  0.00000000E+00
  0.00000000E+00  0.00000000E+00  0.00000000E+00
  0.00000000E+00  0.00000000E+00  0.00000000E+00
  0.00000000E+00  0.00000000E+00  0.00000000E+00
  0.00000000E+00  0.00000000E+00  0.00000000E+00
  0.00000000E+00  0.00000000E+00  0.00000000E+00
  0.00000000E+00  0.00000000E+00  0.00000000E+00
  0.00000000E+00  0.00000000E+00  0.00000000E+00
  0.00000000E+00  0.00000000E+00  0.00000000E+00
  0.00000000E+00  0.00000000E+00  0.00000000E+00
  0.00000000E+00  0.00000000E+00  0.00000000E+00
  0.00000000E+00  0.00000000E+00  0.00000000E+00
  0.00000000E+00  0.00000000E+00  0.00000000E+00
  0.00000000E+00  0.00000000E+00  0.00000000E+00
  0.00000000E+00  0.00000000E+00  0.00000000E+00
  0.00000000E+00  0.00000000E+00  0.00000000E+00
  0.00000000E+00  0.00000000E+00  0.00000000E+00
