10.56                                   
   1.00000000000000     
    10.5600004195999997    0.0000000000000000    0.0000000000000000
     5.2800002097999998    9.1452286273999999    0.0000000000000000
     0.0000000000000000    0.0000000000000000   22.0000000000000000
   Pt   Fe   Co   Cu   Ni
    32    13    10    13    12
Direct
  0.7875483686953579  0.8785175043947058  0.3174021509270596
  0.0431691410643212  0.8821532742453353  0.3158225097542831
  0.2796427389868250  0.3802835030911162  0.3199716251456399
  0.8748645941655275  0.9611537557204650  0.4238181776526158
  0.1225355824712924  0.4615501919802726  0.4283095031429544
  0.1254050132072756  0.9609189641199261  0.4216786824702944
  0.8745751667887177  0.4597162074491006  0.4268074546334693
  0.3749649482888776  0.9594986064909826  0.4206194940572019
  0.8746196802226456  0.2108770969140030  0.4211349383098228
  0.1256692244829491  0.2104646059534833  0.4229956877770221
  0.6246031244690023  0.9604592175780917  0.4233698119738818
  0.8745659811620564  0.7102033173240166  0.4261855820679554
  0.3745533542243959  0.2090328399462625  0.4250730416288796
  0.3758813642025260  0.7113966892092541  0.4237538958410487
  0.6258150588122811  0.4607691340736898  0.4228239764855797
  0.1246591320534268  0.7106466695572594  0.4261275728180370
  0.6254830628287994  0.2102222846826806  0.4222205597716422
  0.5478270431707178  0.3759813060128293  0.3173432032822127
  0.5347443824389967  0.1243593027461556  0.3149856651859253
  0.5453437495526721  0.1240595691714640  0.0400604694280415
  0.1205974334941937  0.4610005814665463  0.1276346590662393
  0.0426621452810969  0.1369536414690065  0.3142606700478481
  0.0404770284213682  0.1312871300694400  0.0330292074932942
  0.1295778204083896  0.9588876536211061  0.1321060241521649
  0.3746365316286054  0.4609073575269051  0.4265081725932471
  0.4551644363174792  0.5454062007793742  0.2185182771759003
  0.6231240607565534  0.7108124739523500  0.4235946677651271
  0.9568471962555710  0.7893212412012286  0.2208417349501040
  0.7952496303400747  0.6217654369715974  0.3188564391814650
  0.2918876231463008  0.6310237865025002  0.3180127449626903
  0.2021057397745252  0.2809617933759649  0.2255613669526719
  0.7069211872014243  0.5488786454115924  0.2205361084088464
  0.0410606930723789  0.6304310509666312  0.3256060816494772
  0.7956187606738495  0.8621708304665363  0.0420858451963165
  0.0555189222994333  0.8669063136529350  0.0379491872087791
  0.0463129190421520  0.6290978398389298  0.0365086914898555
  0.6257000764646418  0.2220971770654121  0.1291118810896528
  0.3816456166873914  0.9551494561615776  0.1301415282742947
  0.0359658998626377  0.3829947271905162  0.3253640298808621
  0.0301120165517602  0.3829685151022516  0.0371500048410740
  0.8710290080479225  0.2156453028987429  0.1283938179408257
  0.9547980154085600  0.5446367041444956  0.2233025603516435
  0.2955176205584586  0.1167558742539289  0.3220001889819132
  0.5414939496193496  0.6288930870531041  0.3224428786104429
  0.2932765003267560  0.1206370389953898  0.0397754692935364
  0.5474570066232732  0.6261745457451554  0.0436318592529603
  0.2957617031389195  0.3797123187978201  0.0386986445324990
  0.6247716986969282  0.9504197965862287  0.1324609411901446
  0.7066253081552103  0.7943229892249710  0.2199135227058463
  0.8659353566674078  0.7060232017418714  0.1286579640641055
  0.6258352134137926  0.4606872476797625  0.1267662329244699
  0.2981425945931776  0.8762856739201070  0.3180907999347199
  0.3043174719566445  0.8693377574849643  0.0405970883511640
  0.6269732763658914  0.7143527155425805  0.1282240574942991
  0.2238688567047752  0.0291095213199796  0.2273267354277723
  0.5424292593392790  0.3807727436801819  0.0346989482474902
  0.3772299406128916  0.2055308252833814  0.1327777271075083
  0.1360242897871024  0.7053860000149339  0.1315918977404300
  0.7051954004428226  0.0502608115954859  0.2205173404006286
  0.7928061650337314  0.1298127177107723  0.3176055390010801
  0.5385518422856701  0.8729927532943492  0.3171252850500425
  0.7948853651966094  0.1232376630741037  0.0346316786769725
  0.5444023801444192  0.8715519007334211  0.0362694080716384
  0.2078894061713817  0.5420947322954585  0.2239051878690342
  0.9512370110993724  0.2966930414597745  0.2213124285005980
  0.8708897251959439  0.9641592477376053  0.1289993959934707
  0.7142528497845427  0.2896421057062677  0.2234577646709775
  0.4568100551986931  0.2917514680943148  0.2209613646293763
  0.8751659144018021  0.4571513153692502  0.1274724863100133
  0.1258285148212642  0.2086892201686358  0.1287550367791134
  0.7911603309926175  0.6233858851751606  0.0400348231713778
  0.2977271755234110  0.6259036128253770  0.0421531705164318
  0.3848733683467447  0.7121241484567336  0.1288407168879169
  0.3813298066316538  0.4518292311989237  0.1264399402754091
  0.7930140218161081  0.3794800811427032  0.3209133173218104
  0.7901739642674777  0.3778448823958829  0.0391572548352855
  0.9548171583006789  0.0529179314552346  0.2215617399248600
  0.4581583712196733  0.7965763555192991  0.2245871113138284
  0.2141560425501052  0.7981440908608262  0.2245349636953811
  0.4621223515904752  0.0305065829093765  0.2222214522195537
 
  0.00000000E+00  0.00000000E+00  0.00000000E+00
  0.00000000E+00  0.00000000E+00  0.00000000E+00
  0.00000000E+00  0.00000000E+00  0.00000000E+00
  0.00000000E+00  0.00000000E+00  0.00000000E+00
  0.00000000E+00  0.00000000E+00  0.00000000E+00
  0.00000000E+00  0.00000000E+00  0.00000000E+00
  0.00000000E+00  0.00000000E+00  0.00000000E+00
  0.00000000E+00  0.00000000E+00  0.00000000E+00
  0.00000000E+00  0.00000000E+00  0.00000000E+00
  0.00000000E+00  0.00000000E+00  0.00000000E+00
  0.00000000E+00  0.00000000E+00  0.00000000E+00
  0.00000000E+00  0.00000000E+00  0.00000000E+00
  0.00000000E+00  0.00000000E+00  0.00000000E+00
  0.00000000E+00  0.00000000E+00  0.00000000E+00
  0.00000000E+00  0.00000000E+00  0.00000000E+00
  0.00000000E+00  0.00000000E+00  0.00000000E+00
  0.00000000E+00  0.00000000E+00  0.00000000E+00
  0.00000000E+00  0.00000000E+00  0.00000000E+00
  0.00000000E+00  0.00000000E+00  0.00000000E+00
  0.00000000E+00  0.00000000E+00  0.00000000E+00
  0.00000000E+00  0.00000000E+00  0.00000000E+00
  0.00000000E+00  0.00000000E+00  0.00000000E+00
  0.00000000E+00  0.00000000E+00  0.00000000E+00
  0.00000000E+00  0.00000000E+00  0.00000000E+00
  0.00000000E+00  0.00000000E+00  0.00000000E+00
  0.00000000E+00  0.00000000E+00  0.00000000E+00
  0.00000000E+00  0.00000000E+00  0.00000000E+00
  0.00000000E+00  0.00000000E+00  0.00000000E+00
  0.00000000E+00  0.00000000E+00  0.00000000E+00
  0.00000000E+00  0.00000000E+00  0.00000000E+00
  0.00000000E+00  0.00000000E+00  0.00000000E+00
  0.00000000E+00  0.00000000E+00  0.00000000E+00
  0.00000000E+00  0.00000000E+00  0.00000000E+00
  0.00000000E+00  0.00000000E+00  0.00000000E+00
  0.00000000E+00  0.00000000E+00  0.00000000E+00
  0.00000000E+00  0.00000000E+00  0.00000000E+00
  0.00000000E+00  0.00000000E+00  0.00000000E+00
  0.00000000E+00  0.00000000E+00  0.00000000E+00
  0.00000000E+00  0.00000000E+00  0.00000000E+00
  0.00000000E+00  0.00000000E+00  0.00000000E+00
  0.00000000E+00  0.00000000E+00  0.00000000E+00
  0.00000000E+00  0.00000000E+00  0.00000000E+00
  0.00000000E+00  0.00000000E+00  0.00000000E+00
  0.00000000E+00  0.00000000E+00  0.00000000E+00
  0.00000000E+00  0.00000000E+00  0.00000000E+00
  0.00000000E+00  0.00000000E+00  0.00000000E+00
  0.00000000E+00  0.00000000E+00  0.00000000E+00
  0.00000000E+00  0.00000000E+00  0.00000000E+00
  0.00000000E+00  0.00000000E+00  0.00000000E+00
  0.00000000E+00  0.00000000E+00  0.00000000E+00
  0.00000000E+00  0.00000000E+00  0.00000000E+00
  0.00000000E+00  0.00000000E+00  0.00000000E+00
  0.00000000E+00  0.00000000E+00  0.00000000E+00
  0.00000000E+00  0.00000000E+00  0.00000000E+00
  0.00000000E+00  0.00000000E+00  0.00000000E+00
  0.00000000E+00  0.00000000E+00  0.00000000E+00
  0.00000000E+00  0.00000000E+00  0.00000000E+00
  0.00000000E+00  0.00000000E+00  0.00000000E+00
  0.00000000E+00  0.00000000E+00  0.00000000E+00
  0.00000000E+00  0.00000000E+00  0.00000000E+00
  0.00000000E+00  0.00000000E+00  0.00000000E+00
  0.00000000E+00  0.00000000E+00  0.00000000E+00
  0.00000000E+00  0.00000000E+00  0.00000000E+00
  0.00000000E+00  0.00000000E+00  0.00000000E+00
  0.00000000E+00  0.00000000E+00  0.00000000E+00
  0.00000000E+00  0.00000000E+00  0.00000000E+00
  0.00000000E+00  0.00000000E+00  0.00000000E+00
  0.00000000E+00  0.00000000E+00  0.00000000E+00
  0.00000000E+00  0.00000000E+00  0.00000000E+00
  0.00000000E+00  0.00000000E+00  0.00000000E+00
  0.00000000E+00  0.00000000E+00  0.00000000E+00
  0.00000000E+00  0.00000000E+00  0.00000000E+00
  0.00000000E+00  0.00000000E+00  0.00000000E+00
  0.00000000E+00  0.00000000E+00  0.00000000E+00
  0.00000000E+00  0.00000000E+00  0.00000000E+00
  0.00000000E+00  0.00000000E+00  0.00000000E+00
  0.00000000E+00  0.00000000E+00  0.00000000E+00
  0.00000000E+00  0.00000000E+00  0.00000000E+00
  0.00000000E+00  0.00000000E+00  0.00000000E+00
  0.00000000E+00  0.00000000E+00  0.00000000E+00
