Pt111                                   
   1.00000000000000     
    11.2227001190000006    0.0000000000000000    0.0000000000000000
     5.6113500595000003    9.7191434021000003    0.0000000000000000
     0.0000000000000000    0.0000000000000000   22.0000000000000000
   Pt   H 
    80     1
Direct
  0.7848512825469598  0.8691879846162891  0.3268368916925652
  0.0349506374147097  0.8691916607262513  0.3267850276254407
  0.0349681439667364  0.6190949454760357  0.3267847429410224
  0.7862800733264166  0.8682302335667984  0.0225670580896420
  0.0364384289575739  0.8680609123406740  0.0226856172377552
  0.0364228412020893  0.6182202209624847  0.0226805842976674
  0.6189758229697873  0.2020979939630791  0.1260885187249556
  0.3693140330301006  0.9516241768426781  0.1260459576789543
  0.0348991446712645  0.3691566669895323  0.3266431598138908
  0.0361788601386195  0.3685782103629265  0.0227088107239481
  0.8688471424392574  0.2020294336463593  0.1260521634149825
  0.9519264616508565  0.5356547452029048  0.2264349891004329
  0.2848178583347192  0.1192334926636249  0.3266745735594583
  0.5347055173484137  0.6189929133794578  0.3278042395064347
  0.2851882777340293  0.3694612374784825  0.3271057028584963
  0.2866648073203137  0.1180272390618526  0.0227513006878084
  0.5363674575412603  0.6181341683654651  0.0228022684457088
  0.2863915428576789  0.3682318987564202  0.0227333503611220
  0.6191969660040542  0.9518451946024555  0.1259728282362289
  0.7019676186438559  0.7854835994542881  0.2263984765097504
  0.8691370781143277  0.7019650235728037  0.1259463243490018
  0.6188595638574625  0.4520258954547813  0.1262610686224335
  0.2851342192046218  0.8686503586413465  0.3270892949410964
  0.2863455172146203  0.8681294905190242  0.0227238204599729
  0.6190272711796112  0.7018223024332428  0.1260977723064158
  0.2018501195449289  0.0358712550712923  0.2261802919130602
  0.8678440763105399  0.9527212633036157  0.4303327414568443
  0.1171889249072464  0.4526575754883595  0.4301433670148427
  0.1171533589013478  0.9535140878982418  0.4301592636660274
  0.8685144250073122  0.4527039889336777  0.4301820465332540
  0.3677487957090690  0.9534542607051364  0.4301873755525918
  0.8685138209253722  0.2021242416042810  0.4301681274949516
  0.1177377645599691  0.2027917040913465  0.4300456217542177
  0.6177142935920301  0.9527792416289032  0.4303161291489843
  0.8678788307905236  0.7027053112656176  0.4303103907733288
  0.3676862417272275  0.2021706912194503  0.4301855044147658
  0.3652405490061099  0.7078809573330389  0.4320135285762490
  0.6228507518782891  0.4502418513559050  0.4320157276587295
  0.1146949529630277  0.7043068985799295  0.4301267780433662
  0.6193363181507365  0.1995481535085943  0.4302009830345170
  0.5347457610595114  0.3694896187931036  0.3278107644826775
  0.5362999606212639  0.3683330369605926  0.0228043355866490
  0.5348710020288507  0.1191844079250686  0.3268065908451874
  0.5364073131424973  0.1182011611489600  0.0226946124864469
  0.8688488054928172  0.4520924555570289  0.1260435934797286
  0.1192131737046651  0.4520863784605709  0.1260449225212881
  0.0349275983382142  0.1191551583463806  0.3266343460416010
  0.0361642110944302  0.1179866292349558  0.0227279019036359
  0.1192202285993176  0.9516317002694095  0.1260554316499594
  0.3653367369144647  0.4502042949897032  0.4320125503042078
  0.4519465321371143  0.5356010571781269  0.2270543000032745
  0.6193725744798400  0.7043786913466832  0.4301577235621465
  0.3693131359179063  0.2019887131366218  0.1260565912683163
  0.1190331488225738  0.2019819612192890  0.1254658026459552
  0.9520467657660063  0.7855306249135197  0.2263938486395887
  0.7848561920515778  0.6191523748259158  0.3268034925711731
  0.2852412280439722  0.6190271429620466  0.3277899721488495
  0.7863014759458267  0.6182215288136490  0.0226957846460536
  0.2864847936484765  0.6181217200920912  0.0228290513005192
  0.3692583949739969  0.7016854194684896  0.1262318620069394
  0.3692569353809318  0.4519788326252012  0.1262555462450905
  0.2018589480637587  0.2854184876060160  0.2261930321243639
  0.7842802673880698  0.3694678985199289  0.3271212691878844
  0.7862188177298322  0.3682346507694092  0.0227349294420947
  0.9519241633560824  0.0355358100867065  0.2264282561205917
  0.4518648845095683  0.7854948349361166  0.2266143699415935
  0.7018910973371604  0.5354562929554305  0.2266301948239189
  0.2022117762900919  0.7854295400748725  0.2266135330251160
  0.4520153242198290  0.0355863943461046  0.2264430687497949
  0.1192959244392142  0.7018047129573688  0.1261048279435855
  0.7019573644224977  0.0356599285747663  0.2263975340501787
  0.7848734409334526  0.1192295841716202  0.3268179153551571
  0.5348196824030040  0.8692031669609932  0.3267804664251983
  0.7862871364270134  0.1182238332837073  0.0227171700966409
  0.5363985297314073  0.8681113131543086  0.0226914235324926
  0.2021965239350862  0.5354402560929472  0.2266306551165229
  0.9522067179985712  0.2854531589219107  0.2262034807560127
  0.8691293525423234  0.9518478548899338  0.1259481550277357
  0.7018981551127723  0.2857277772235776  0.2266223432162136
  0.4518882993087772  0.2857822085104260  0.2266352634263669
  0.4510165440441725  0.5361799856297367  0.4697107140783032
 
  0.00000000E+00  0.00000000E+00  0.00000000E+00
  0.00000000E+00  0.00000000E+00  0.00000000E+00
  0.00000000E+00  0.00000000E+00  0.00000000E+00
  0.00000000E+00  0.00000000E+00  0.00000000E+00
  0.00000000E+00  0.00000000E+00  0.00000000E+00
  0.00000000E+00  0.00000000E+00  0.00000000E+00
  0.00000000E+00  0.00000000E+00  0.00000000E+00
  0.00000000E+00  0.00000000E+00  0.00000000E+00
  0.00000000E+00  0.00000000E+00  0.00000000E+00
  0.00000000E+00  0.00000000E+00  0.00000000E+00
  0.00000000E+00  0.00000000E+00  0.00000000E+00
  0.00000000E+00  0.00000000E+00  0.00000000E+00
  0.00000000E+00  0.00000000E+00  0.00000000E+00
  0.00000000E+00  0.00000000E+00  0.00000000E+00
  0.00000000E+00  0.00000000E+00  0.00000000E+00
  0.00000000E+00  0.00000000E+00  0.00000000E+00
  0.00000000E+00  0.00000000E+00  0.00000000E+00
  0.00000000E+00  0.00000000E+00  0.00000000E+00
  0.00000000E+00  0.00000000E+00  0.00000000E+00
  0.00000000E+00  0.00000000E+00  0.00000000E+00
  0.00000000E+00  0.00000000E+00  0.00000000E+00
  0.00000000E+00  0.00000000E+00  0.00000000E+00
  0.00000000E+00  0.00000000E+00  0.00000000E+00
  0.00000000E+00  0.00000000E+00  0.00000000E+00
  0.00000000E+00  0.00000000E+00  0.00000000E+00
  0.00000000E+00  0.00000000E+00  0.00000000E+00
  0.00000000E+00  0.00000000E+00  0.00000000E+00
  0.00000000E+00  0.00000000E+00  0.00000000E+00
  0.00000000E+00  0.00000000E+00  0.00000000E+00
  0.00000000E+00  0.00000000E+00  0.00000000E+00
  0.00000000E+00  0.00000000E+00  0.00000000E+00
  0.00000000E+00  0.00000000E+00  0.00000000E+00
  0.00000000E+00  0.00000000E+00  0.00000000E+00
  0.00000000E+00  0.00000000E+00  0.00000000E+00
  0.00000000E+00  0.00000000E+00  0.00000000E+00
  0.00000000E+00  0.00000000E+00  0.00000000E+00
  0.00000000E+00  0.00000000E+00  0.00000000E+00
  0.00000000E+00  0.00000000E+00  0.00000000E+00
  0.00000000E+00  0.00000000E+00  0.00000000E+00
  0.00000000E+00  0.00000000E+00  0.00000000E+00
  0.00000000E+00  0.00000000E+00  0.00000000E+00
  0.00000000E+00  0.00000000E+00  0.00000000E+00
  0.00000000E+00  0.00000000E+00  0.00000000E+00
  0.00000000E+00  0.00000000E+00  0.00000000E+00
  0.00000000E+00  0.00000000E+00  0.00000000E+00
  0.00000000E+00  0.00000000E+00  0.00000000E+00
  0.00000000E+00  0.00000000E+00  0.00000000E+00
  0.00000000E+00  0.00000000E+00  0.00000000E+00
  0.00000000E+00  0.00000000E+00  0.00000000E+00
  0.00000000E+00  0.00000000E+00  0.00000000E+00
  0.00000000E+00  0.00000000E+00  0.00000000E+00
  0.00000000E+00  0.00000000E+00  0.00000000E+00
  0.00000000E+00  0.00000000E+00  0.00000000E+00
  0.00000000E+00  0.00000000E+00  0.00000000E+00
  0.00000000E+00  0.00000000E+00  0.00000000E+00
  0.00000000E+00  0.00000000E+00  0.00000000E+00
  0.00000000E+00  0.00000000E+00  0.00000000E+00
  0.00000000E+00  0.00000000E+00  0.00000000E+00
  0.00000000E+00  0.00000000E+00  0.00000000E+00
  0.00000000E+00  0.00000000E+00  0.00000000E+00
  0.00000000E+00  0.00000000E+00  0.00000000E+00
  0.00000000E+00  0.00000000E+00  0.00000000E+00
  0.00000000E+00  0.00000000E+00  0.00000000E+00
  0.00000000E+00  0.00000000E+00  0.00000000E+00
  0.00000000E+00  0.00000000E+00  0.00000000E+00
  0.00000000E+00  0.00000000E+00  0.00000000E+00
  0.00000000E+00  0.00000000E+00  0.00000000E+00
  0.00000000E+00  0.00000000E+00  0.00000000E+00
  0.00000000E+00  0.00000000E+00  0.00000000E+00
  0.00000000E+00  0.00000000E+00  0.00000000E+00
  0.00000000E+00  0.00000000E+00  0.00000000E+00
  0.00000000E+00  0.00000000E+00  0.00000000E+00
  0.00000000E+00  0.00000000E+00  0.00000000E+00
  0.00000000E+00  0.00000000E+00  0.00000000E+00
  0.00000000E+00  0.00000000E+00  0.00000000E+00
  0.00000000E+00  0.00000000E+00  0.00000000E+00
  0.00000000E+00  0.00000000E+00  0.00000000E+00
  0.00000000E+00  0.00000000E+00  0.00000000E+00
  0.00000000E+00  0.00000000E+00  0.00000000E+00
  0.00000000E+00  0.00000000E+00  0.00000000E+00
  0.00000000E+00  0.00000000E+00  0.00000000E+00
