Pt111                                   
   1.00000000000000     
    11.2227001190000006    0.0000000000000000    0.0000000000000000
     5.6113500595000003    9.7191434021000003    0.0000000000000000
     0.0000000000000000    0.0000000000000000   22.0000000000000000
   Pt   H 
    80     2
Direct
  0.7855455171134822  0.8688185825993266  0.3264448653088654
  0.0356391675309646  0.8688161331537596  0.3264316154895482
  0.0356200712378592  0.6187308500225711  0.3264087456321058
  0.7849238862811928  0.8689231797801128  0.0229038865071721
  0.0349611871471537  0.8689694427642907  0.0228549586111462
  0.0349726508567623  0.6188480179680877  0.0228460017566553
  0.6185805590141082  0.2021423440400250  0.1262313610634335
  0.3685513788185524  0.9521687890223591  0.1262513552694956
  0.0355685282719799  0.3688272151476714  0.3264374639657719
  0.0350066339599429  0.3689083704767069  0.0227993443350454
  0.8686959291814661  0.2021506619852490  0.1262769912897644
  0.9521356056082309  0.5354522861363185  0.2263666012359162
  0.2854921828263847  0.1188227548259605  0.3264541699811278
  0.5355780194517094  0.6187824395221211  0.3263176618874175
  0.2854851884966325  0.3688102236032764  0.3263577698570904
  0.2849392505296897  0.1188900794618555  0.0228004245434516
  0.5350165708355527  0.6188736429182714  0.0227558979308697
  0.2849064470217305  0.3688834314024423  0.0228028065428081
  0.6186029873531502  0.9521510693785842  0.1263130182456038
  0.7021583510457342  0.7854022675971223  0.2263760130714458
  0.8686186697295829  0.7021691488992191  0.1263158532402114
  0.6186954613599356  0.4521011796636557  0.1261998122461464
  0.2855437593862947  0.8687981457287943  0.3264012217085105
  0.2848889902171138  0.8689711064899066  0.0228057647894223
  0.6185802840760577  0.7021471537725946  0.1262186444190518
  0.2021375084936931  0.0354296911790769  0.2263894608361947
  0.8689350157192111  0.9522419890481754  0.4299104642309169
  0.1188700528821104  0.4522862249732758  0.4298650078905944
  0.1188051581260541  0.9523331549453500  0.4298788428315694
  0.8688757552832752  0.4523552583509642  0.4299045659865797
  0.3689765420119671  0.9522358347760064  0.4298753258901977
  0.8689320311379898  0.2023002433087222  0.4298952984056267
  0.1188198187540547  0.2023576582724406  0.4299231348145948
  0.6188981832549583  0.9522954862906814  0.4298701305344330
  0.8689029506009959  0.7023051147474486  0.4298709327048794
  0.3689062113955869  0.2022878454115602  0.4298721927786888
  0.3687968635417794  0.7023613371847934  0.4297140204634110
  0.6188994540024716  0.4522267422200055  0.4297223169363347
  0.1188035604075858  0.7023170818718957  0.4298368142172437
  0.6188564704504901  0.2023094055543422  0.4298533763368673
  0.5355157743126913  0.3688559859711439  0.3263295219451431
  0.5350261979047488  0.3689274754486027  0.0227441661702450
  0.5354867875888634  0.1188432683826025  0.3264254365096137
  0.5349772600325123  0.1188424210158337  0.0228597751269482
  0.8687519784373303  0.4519894127412462  0.1262487843809905
  0.1186212187449158  0.4521076122807193  0.1262432294620969
  0.0355534969247986  0.1188080008514664  0.3264680397542907
  0.0350232561619452  0.1188620048207518  0.0228670749066595
  0.1186231311985092  0.9521538127033761  0.1262793782903238
  0.3689456365847242  0.4522586442828461  0.4297649506898245
  0.4521056171107473  0.5354103315293189  0.2262416450356833
  0.6188878955075490  0.7024613487669944  0.4297536653395865
  0.3685752167623597  0.2021496798443394  0.1262386987184455
  0.1186021139509745  0.2021365979041170  0.1262864930878889
  0.9521578082528596  0.7854125064434709  0.2263730391610955
  0.7855829277197487  0.6187381093187811  0.3264102540796095
  0.2856026755762340  0.6187292499670638  0.3263498840129693
  0.7849837929700941  0.6188838589087778  0.0228491365815615
  0.2849411624330275  0.6189149993387714  0.0227459108256615
  0.3686164430968611  0.7021658977413522  0.1261759941458371
  0.3686102445245816  0.4520646722138997  0.1261736800795946
  0.2021180922852458  0.2853773993836692  0.2263522346761158
  0.7854971199847073  0.3688792383614989  0.3264153163015417
  0.7850286572418219  0.3688854736810206  0.0227965613206073
  0.9521022784496649  0.0355008281917629  0.2263920433477643
  0.4520998267734304  0.7854134910382637  0.2262708899364806
  0.7022099490886261  0.5353938927301518  0.2262844087939781
  0.2021855373042307  0.7853804050913751  0.2263059100835174
  0.4519961437177013  0.0355279459006146  0.2263533004207772
  0.1185673420338222  0.7021375593189016  0.1262210363271695
  0.7021258515684972  0.0354549838398177  0.2263876333911844
  0.7855517883587031  0.1188551523277578  0.3264569585127444
  0.5354834434493098  0.8688875274700966  0.3263617760422227
  0.7850306119556348  0.1188528930417023  0.0228641680930570
  0.5349716704377986  0.8689632356775882  0.0228331246281524
  0.2021601576995541  0.5354000518444625  0.2262806041961658
  0.9521262696179408  0.2854221691789001  0.2263972360075886
  0.8685978110711690  0.9521200269173262  0.1263267767253447
  0.7021897097189582  0.2853997616564532  0.2263286326541348
  0.4521069793317166  0.2853956969740663  0.2262967747354738
  0.4728304341292493  0.5585022001698945  0.5677186981754476
  0.5113555465726901  0.5972546712341310  0.5694230695402301
 
  0.00000000E+00  0.00000000E+00  0.00000000E+00
  0.00000000E+00  0.00000000E+00  0.00000000E+00
  0.00000000E+00  0.00000000E+00  0.00000000E+00
  0.00000000E+00  0.00000000E+00  0.00000000E+00
  0.00000000E+00  0.00000000E+00  0.00000000E+00
  0.00000000E+00  0.00000000E+00  0.00000000E+00
  0.00000000E+00  0.00000000E+00  0.00000000E+00
  0.00000000E+00  0.00000000E+00  0.00000000E+00
  0.00000000E+00  0.00000000E+00  0.00000000E+00
  0.00000000E+00  0.00000000E+00  0.00000000E+00
  0.00000000E+00  0.00000000E+00  0.00000000E+00
  0.00000000E+00  0.00000000E+00  0.00000000E+00
  0.00000000E+00  0.00000000E+00  0.00000000E+00
  0.00000000E+00  0.00000000E+00  0.00000000E+00
  0.00000000E+00  0.00000000E+00  0.00000000E+00
  0.00000000E+00  0.00000000E+00  0.00000000E+00
  0.00000000E+00  0.00000000E+00  0.00000000E+00
  0.00000000E+00  0.00000000E+00  0.00000000E+00
  0.00000000E+00  0.00000000E+00  0.00000000E+00
  0.00000000E+00  0.00000000E+00  0.00000000E+00
  0.00000000E+00  0.00000000E+00  0.00000000E+00
  0.00000000E+00  0.00000000E+00  0.00000000E+00
  0.00000000E+00  0.00000000E+00  0.00000000E+00
  0.00000000E+00  0.00000000E+00  0.00000000E+00
  0.00000000E+00  0.00000000E+00  0.00000000E+00
  0.00000000E+00  0.00000000E+00  0.00000000E+00
  0.00000000E+00  0.00000000E+00  0.00000000E+00
  0.00000000E+00  0.00000000E+00  0.00000000E+00
  0.00000000E+00  0.00000000E+00  0.00000000E+00
  0.00000000E+00  0.00000000E+00  0.00000000E+00
  0.00000000E+00  0.00000000E+00  0.00000000E+00
  0.00000000E+00  0.00000000E+00  0.00000000E+00
  0.00000000E+00  0.00000000E+00  0.00000000E+00
  0.00000000E+00  0.00000000E+00  0.00000000E+00
  0.00000000E+00  0.00000000E+00  0.00000000E+00
  0.00000000E+00  0.00000000E+00  0.00000000E+00
  0.00000000E+00  0.00000000E+00  0.00000000E+00
  0.00000000E+00  0.00000000E+00  0.00000000E+00
  0.00000000E+00  0.00000000E+00  0.00000000E+00
  0.00000000E+00  0.00000000E+00  0.00000000E+00
  0.00000000E+00  0.00000000E+00  0.00000000E+00
  0.00000000E+00  0.00000000E+00  0.00000000E+00
  0.00000000E+00  0.00000000E+00  0.00000000E+00
  0.00000000E+00  0.00000000E+00  0.00000000E+00
  0.00000000E+00  0.00000000E+00  0.00000000E+00
  0.00000000E+00  0.00000000E+00  0.00000000E+00
  0.00000000E+00  0.00000000E+00  0.00000000E+00
  0.00000000E+00  0.00000000E+00  0.00000000E+00
  0.00000000E+00  0.00000000E+00  0.00000000E+00
  0.00000000E+00  0.00000000E+00  0.00000000E+00
  0.00000000E+00  0.00000000E+00  0.00000000E+00
  0.00000000E+00  0.00000000E+00  0.00000000E+00
  0.00000000E+00  0.00000000E+00  0.00000000E+00
  0.00000000E+00  0.00000000E+00  0.00000000E+00
  0.00000000E+00  0.00000000E+00  0.00000000E+00
  0.00000000E+00  0.00000000E+00  0.00000000E+00
  0.00000000E+00  0.00000000E+00  0.00000000E+00
  0.00000000E+00  0.00000000E+00  0.00000000E+00
  0.00000000E+00  0.00000000E+00  0.00000000E+00
  0.00000000E+00  0.00000000E+00  0.00000000E+00
  0.00000000E+00  0.00000000E+00  0.00000000E+00
  0.00000000E+00  0.00000000E+00  0.00000000E+00
  0.00000000E+00  0.00000000E+00  0.00000000E+00
  0.00000000E+00  0.00000000E+00  0.00000000E+00
  0.00000000E+00  0.00000000E+00  0.00000000E+00
  0.00000000E+00  0.00000000E+00  0.00000000E+00
  0.00000000E+00  0.00000000E+00  0.00000000E+00
  0.00000000E+00  0.00000000E+00  0.00000000E+00
  0.00000000E+00  0.00000000E+00  0.00000000E+00
  0.00000000E+00  0.00000000E+00  0.00000000E+00
  0.00000000E+00  0.00000000E+00  0.00000000E+00
  0.00000000E+00  0.00000000E+00  0.00000000E+00
  0.00000000E+00  0.00000000E+00  0.00000000E+00
  0.00000000E+00  0.00000000E+00  0.00000000E+00
  0.00000000E+00  0.00000000E+00  0.00000000E+00
  0.00000000E+00  0.00000000E+00  0.00000000E+00
  0.00000000E+00  0.00000000E+00  0.00000000E+00
  0.00000000E+00  0.00000000E+00  0.00000000E+00
  0.00000000E+00  0.00000000E+00  0.00000000E+00
  0.00000000E+00  0.00000000E+00  0.00000000E+00
  0.00000000E+00  0.00000000E+00  0.00000000E+00
  0.00000000E+00  0.00000000E+00  0.00000000E+00
