Pt111\(1\1\1)\(2)                       
   1.00000000000000     
    10.5600004195999997    0.0000000000000000    0.0000000000000000
    -5.2800002097999998    9.1452286273999999    0.0000000000000000
     0.0000000000000000    0.0000000000000000   20.0000000000000000
   Pt   H 
    64     2
Selective dynamics
Direct
  0.9999984446215961  0.0000015553793773  0.0557922949150012   T   T   T
  0.3333317286582087  0.1666682603465262  0.1775239735950009   T   T   T
  0.1666272090935692  0.3337782778064735  0.2976031994850032   T   T   T
  0.9998430086153860  0.0003223666373060  0.4187887741150007   T   T   T
  0.9999984416169312  0.2500015483757210  0.0557922949150012   T   T   T
  0.3333317206590891  0.4166682673501754  0.1775239735950009   T   T   T
  0.1666751356150087  0.0835372701903907  0.2973360084650025   T   T   T
  0.9998363626676436  0.2504093001829162  0.4191722757449980   T   T   T
  0.2499984416169312  0.2500015483757210  0.0557922949150012   T   T   T
  0.0833317206590891  0.4166682673501754  0.1775239735950009   T   T   T
  0.4164890528740415  0.0833869828814571  0.2976056508350027   T   T   T
  0.2498370593026777  0.2503414763345191  0.4183635618550028   T   T   T
  0.2499984446215961  0.0000015553793773  0.0557922949150012   T   T   T
  0.0833317236582047  0.1666682603465262  0.1775239735950009   T   T   T
  0.4168332133900918  0.3332911560754042  0.2974105883549996   T   T   T
  0.2497715508299976  0.0004336513783940  0.4206800045599977   T   T   T
  0.4999984446215961  0.0000015553793773  0.0557922949150012   T   T   T
  0.8333316836582085  0.1666682603465262  0.1775239735950009   T   T   T
  0.6667182838917114  0.3335933707506840  0.2975929702249971   T   T   T
  0.4998343388493751  0.0004314528767679  0.4188784301000013   T   T   T
  0.4999984296188273  0.2500015483757210  0.0557922949150012   T   T   T
  0.8333316756590889  0.4166682673501754  0.1775239735950009   T   T   T
  0.6667617235841661  0.0833349090602979  0.2978127619100022   T   T   T
  0.4999052034643299  0.2502608890982643  0.4196011901800034   T   T   T
  0.7499984076207227  0.2500015483757210  0.0557922949150012   T   T   T
  0.5833316756590889  0.4166682673501754  0.1775239735950009   T   T   T
  0.9163842520361882  0.0834621267436830  0.2979232972850028   T   T   T
  0.7497017396889376  0.2502835844849471  0.4188721286949999   T   T   T
  0.7499984216197078  0.0000015553793773  0.0557922949150012   T   T   T
  0.5833316616506323  0.1666682603465262  0.1775239735950009   T   T   T
  0.9166833376946002  0.3336599370252742  0.2972812637899978   T   T   T
  0.7497719516964594  0.0003168374152338  0.4213574503149999   T   T   T
  0.9999984376190483  0.5000015423780582  0.0557922949150012   T   T   T
  0.3333317066506325  0.6666682603465262  0.1775239735950009   T   T   T
  0.1665997759895035  0.8337032419021781  0.2976813150149979   T   T   T
  0.9997033439931045  0.5002214312492868  0.4188846928250030   T   T   T
  0.9999984326223199  0.7500015093827130  0.0557922949150012   T   T   T
  0.3333317276521655  0.9166682803514945  0.1775239735950009   T   T   T
  0.1666256313692713  0.5834501999560118  0.2975270766100024   T   T   T
  0.9998360476432495  0.7502722619577327  0.4191607526449985   T   T   T
  0.2499984326223199  0.7500015093827130  0.0557922949150012   T   T   T
  0.0833317276521655  0.9166682803514945  0.1775239735950009   T   T   T
  0.4163045497509472  0.5835393328834897  0.2975942807499976   T   T   T
  0.2498879735853805  0.7503790345426253  0.4188850270950013   T   T   T
  0.2499984376190483  0.5000015423780582  0.0557922949150012   T   T   T
  0.0833317066506325  0.6666682603465262  0.1775239735950009   T   T   T
  0.4164158331877417  0.8334305618630466  0.2972749389450016   T   T   T
  0.2497205506193083  0.5003762726597856  0.4206820764449972   T   T   T
  0.4999984376190483  0.5000015423780582  0.0557922949150012   T   T   T
  0.8333317066506325  0.6666682603465262  0.1775239735950009   T   T   T
  0.6666457664729819  0.8337409756553811  0.2979334867800034   T   T   T
  0.4997611837227964  0.5003021768085389  0.4183500968100020   T   T   T
  0.4999984326223199  0.7500015093827130  0.0557922949150012   T   T   T
  0.8333317046597415  0.9166682803514945  0.1775239735950009   T   T   T
  0.6665269887533327  0.5834127688086994  0.2972956405150029   T   T   T
  0.4996688457998459  0.7502795279543193  0.4192486921750032   T   T   T
  0.7499984106242152  0.7500015093827130  0.0557922949150012   T   T   T
  0.5833316826521724  0.9166682803514945  0.1775239735950009   T   T   T
  0.9163765878837822  0.5834445126624388  0.2976745064099973   T   T   T
  0.7497769690687193  0.7503057859200624  0.4187689346800028   T   T   T
  0.7499983926190481  0.5000015423780582  0.0557922949150012   T   T   T
  0.5833316616506323  0.6666682603465262  0.1775239735950009   T   T   T
  0.9164830759517457  0.8335819904775121  0.2973312911800008   T   T   T
  0.7496477078721711  0.5003640409480852  0.4206241553400005   T   T   T
  0.3807342345239988  0.4114982765903648  0.5677884598599974   T   T   T
  0.3720147023804756  0.3370312726753895  0.5734095298349970   T   T   T
 
  0.00000000E+00  0.00000000E+00  0.00000000E+00
  0.00000000E+00  0.00000000E+00  0.00000000E+00
  0.00000000E+00  0.00000000E+00  0.00000000E+00
  0.00000000E+00  0.00000000E+00  0.00000000E+00
  0.00000000E+00  0.00000000E+00  0.00000000E+00
  0.00000000E+00  0.00000000E+00  0.00000000E+00
  0.00000000E+00  0.00000000E+00  0.00000000E+00
  0.00000000E+00  0.00000000E+00  0.00000000E+00
  0.00000000E+00  0.00000000E+00  0.00000000E+00
  0.00000000E+00  0.00000000E+00  0.00000000E+00
  0.00000000E+00  0.00000000E+00  0.00000000E+00
  0.00000000E+00  0.00000000E+00  0.00000000E+00
  0.00000000E+00  0.00000000E+00  0.00000000E+00
  0.00000000E+00  0.00000000E+00  0.00000000E+00
  0.00000000E+00  0.00000000E+00  0.00000000E+00
  0.00000000E+00  0.00000000E+00  0.00000000E+00
  0.00000000E+00  0.00000000E+00  0.00000000E+00
  0.00000000E+00  0.00000000E+00  0.00000000E+00
  0.00000000E+00  0.00000000E+00  0.00000000E+00
  0.00000000E+00  0.00000000E+00  0.00000000E+00
  0.00000000E+00  0.00000000E+00  0.00000000E+00
  0.00000000E+00  0.00000000E+00  0.00000000E+00
  0.00000000E+00  0.00000000E+00  0.00000000E+00
  0.00000000E+00  0.00000000E+00  0.00000000E+00
  0.00000000E+00  0.00000000E+00  0.00000000E+00
  0.00000000E+00  0.00000000E+00  0.00000000E+00
  0.00000000E+00  0.00000000E+00  0.00000000E+00
  0.00000000E+00  0.00000000E+00  0.00000000E+00
  0.00000000E+00  0.00000000E+00  0.00000000E+00
  0.00000000E+00  0.00000000E+00  0.00000000E+00
  0.00000000E+00  0.00000000E+00  0.00000000E+00
  0.00000000E+00  0.00000000E+00  0.00000000E+00
  0.00000000E+00  0.00000000E+00  0.00000000E+00
  0.00000000E+00  0.00000000E+00  0.00000000E+00
  0.00000000E+00  0.00000000E+00  0.00000000E+00
  0.00000000E+00  0.00000000E+00  0.00000000E+00
  0.00000000E+00  0.00000000E+00  0.00000000E+00
  0.00000000E+00  0.00000000E+00  0.00000000E+00
  0.00000000E+00  0.00000000E+00  0.00000000E+00
  0.00000000E+00  0.00000000E+00  0.00000000E+00
  0.00000000E+00  0.00000000E+00  0.00000000E+00
  0.00000000E+00  0.00000000E+00  0.00000000E+00
  0.00000000E+00  0.00000000E+00  0.00000000E+00
  0.00000000E+00  0.00000000E+00  0.00000000E+00
  0.00000000E+00  0.00000000E+00  0.00000000E+00
  0.00000000E+00  0.00000000E+00  0.00000000E+00
  0.00000000E+00  0.00000000E+00  0.00000000E+00
  0.00000000E+00  0.00000000E+00  0.00000000E+00
  0.00000000E+00  0.00000000E+00  0.00000000E+00
  0.00000000E+00  0.00000000E+00  0.00000000E+00
  0.00000000E+00  0.00000000E+00  0.00000000E+00
  0.00000000E+00  0.00000000E+00  0.00000000E+00
  0.00000000E+00  0.00000000E+00  0.00000000E+00
  0.00000000E+00  0.00000000E+00  0.00000000E+00
  0.00000000E+00  0.00000000E+00  0.00000000E+00
  0.00000000E+00  0.00000000E+00  0.00000000E+00
  0.00000000E+00  0.00000000E+00  0.00000000E+00
  0.00000000E+00  0.00000000E+00  0.00000000E+00
  0.00000000E+00  0.00000000E+00  0.00000000E+00
  0.00000000E+00  0.00000000E+00  0.00000000E+00
  0.00000000E+00  0.00000000E+00  0.00000000E+00
  0.00000000E+00  0.00000000E+00  0.00000000E+00
  0.00000000E+00  0.00000000E+00  0.00000000E+00
  0.00000000E+00  0.00000000E+00  0.00000000E+00
  0.00000000E+00  0.00000000E+00  0.00000000E+00
  0.00000000E+00  0.00000000E+00  0.00000000E+00
