Pt111                                   
   1.00000000000000     
    11.2227001190000006    0.0000000000000000    0.0000000000000000
     5.6113500595000003    9.7191434021000003    0.0000000000000000
     0.0000000000000000    0.0000000000000000   22.0000000000000000
   Pt   H 
    80     1
Direct
  0.7849419728810156  0.8691654231984083  0.3264452748285896
  0.0350532378947914  0.8692167597830394  0.3263743451474205
  0.0350620862570880  0.6189452909937931  0.3263742835556711
  0.7862242561367940  0.8682629839584785  0.0229301462015930
  0.0362839658174327  0.8682786390423990  0.0229579864293042
  0.0363077873547813  0.6181503076865821  0.0229672998170059
  0.6190320355835862  0.2019670085887424  0.1264480539519748
  0.3691530007034657  0.9516818973821501  0.1263327305590826
  0.0350578938761047  0.3690080156494930  0.3262284373062209
  0.0361225194987056  0.3685149418679123  0.0228919394563942
  0.8688332407211775  0.2021061636708385  0.1263375672523876
  0.9519472547945961  0.5355853181309810  0.2263513938913440
  0.2848096025271242  0.1192200207150779  0.3262503427026617
  0.5347878197838393  0.6189772771737666  0.3274684081775979
  0.2853618246837190  0.3695976678004893  0.3267768256226426
  0.2865243095690644  0.1181039050722491  0.0229170851935423
  0.5362318830355127  0.6181921802692323  0.0230603396533938
  0.2861735493423593  0.3681982829119168  0.0228669905053468
  0.6191051718754929  0.9519194497611638  0.1264222619085763
  0.7019286962098655  0.7854234942904887  0.2264218276532282
  0.8690357451807906  0.7020192435411542  0.1264016527153825
  0.6188129317290246  0.4520592740891587  0.1265609349714214
  0.2853448737912505  0.8682943142698022  0.3267490847220237
  0.2861743975047623  0.8683527126813648  0.0228645814040582
  0.6190272212940109  0.7019452147345351  0.1264398180130006
  0.2018891464844821  0.0357580168697462  0.2261106542810036
  0.8678880333922823  0.9526558244152674  0.4301146682985680
  0.1173121286287166  0.4526759148040005  0.4299754295746542
  0.1172944865935053  0.9533653501619257  0.4299574239110283
  0.8685299508844214  0.4526323701145342  0.4299871434238055
  0.3678247178423096  0.9533111076771171  0.4299774256782092
  0.8685401327306039  0.2021911731739525  0.4299881986111303
  0.1178571432609102  0.2027467021783236  0.4299828706515261
  0.6179425903354213  0.9526760507496366  0.4301042732299360
  0.8678805761790233  0.7027998835223697  0.4300989740480246
  0.3678383025861899  0.2021419639275012  0.4299882399402596
  0.3654410532726075  0.7075952060944648  0.4319751286690736
  0.6227023245124509  0.4503209847735113  0.4320013989807839
  0.1150530863144515  0.7041350799408341  0.4299516945827799
  0.6192462503946747  0.1998506226967222  0.4300136654431966
  0.5348073327033148  0.3694383685674598  0.3274905629802544
  0.5362119596519718  0.3683428868770824  0.0230590723404693
  0.5347927966014578  0.1192310563390665  0.3263987551952283
  0.5362244868575667  0.1182227941097570  0.0229754403666265
  0.8688266819522551  0.4519922777910778  0.1263409605962494
  0.1191995100852978  0.4520431202270488  0.1263416936521592
  0.0350319619874201  0.1192092332074418  0.3262253769750023
  0.0361268133830466  0.1180523917262879  0.0228893674089742
  0.1191629081965618  0.9517043307461305  0.1263332693511885
  0.3655052901208463  0.4502885242375842  0.4319832968797733
  0.4519781985293065  0.5355654881111538  0.2271841144450187
  0.6192571871407350  0.7041831656450257  0.4299892449745511
  0.3691504774465936  0.2020881576335020  0.1263354369792477
  0.1189996684571507  0.2019622596298218  0.1258231444734223
  0.9521816514098118  0.7854643724276148  0.2263983791602222
  0.7850167699170617  0.6189686958316892  0.3264203825945439
  0.2852569109156001  0.6189774233374359  0.3274677747624084
  0.7863258783862864  0.6181817840329135  0.0229996256833861
  0.2863589910383728  0.6181835564373190  0.0230740122848602
  0.3692048907067293  0.7017192509684638  0.1265597195739859
  0.3692044202137917  0.4520174645221108  0.1265668368642042
  0.2019374149426217  0.2854539341391324  0.2261273947246915
  0.7840585735851184  0.3695849084889684  0.3267824632033297
  0.7863339556141400  0.3682017109367246  0.0228620453640938
  0.9519389646493711  0.0356023312640044  0.2263612300913142
  0.4518532658726741  0.7854538425392861  0.2265183344843243
  0.7018532824756073  0.5354449401744642  0.2265327276729814
  0.2022880911095548  0.7854180312215405  0.2265152110345278
  0.4519517259660623  0.0355953986467238  0.2263650589241159
  0.1190807290768653  0.7019336773424908  0.1264369577709083
  0.7019080614941964  0.0357650519510852  0.2264255843505651
  0.7849932262180593  0.1192771917122623  0.3264385344705238
  0.5347983974052393  0.8692251060201999  0.3263970075141007
  0.7863082503730959  0.1182468607373886  0.0229976444380222
  0.5361879766720182  0.8683151073364259  0.0229682594017837
  0.2022867929899334  0.5354182655341463  0.2265172040267592
  0.9521043637305672  0.2854969191554838  0.2261484007095395
  0.8690161352142176  0.9518695097383726  0.1264100951669977
  0.7018679206497263  0.2858178469658773  0.2265348276117418
  0.4518587429511439  0.2858213386636724  0.2265270506644010
  0.4511608518502142  0.5361014656625767  0.4698607458696289
 
  0.00000000E+00  0.00000000E+00  0.00000000E+00
  0.00000000E+00  0.00000000E+00  0.00000000E+00
  0.00000000E+00  0.00000000E+00  0.00000000E+00
  0.00000000E+00  0.00000000E+00  0.00000000E+00
  0.00000000E+00  0.00000000E+00  0.00000000E+00
  0.00000000E+00  0.00000000E+00  0.00000000E+00
  0.00000000E+00  0.00000000E+00  0.00000000E+00
  0.00000000E+00  0.00000000E+00  0.00000000E+00
  0.00000000E+00  0.00000000E+00  0.00000000E+00
  0.00000000E+00  0.00000000E+00  0.00000000E+00
  0.00000000E+00  0.00000000E+00  0.00000000E+00
  0.00000000E+00  0.00000000E+00  0.00000000E+00
  0.00000000E+00  0.00000000E+00  0.00000000E+00
  0.00000000E+00  0.00000000E+00  0.00000000E+00
  0.00000000E+00  0.00000000E+00  0.00000000E+00
  0.00000000E+00  0.00000000E+00  0.00000000E+00
  0.00000000E+00  0.00000000E+00  0.00000000E+00
  0.00000000E+00  0.00000000E+00  0.00000000E+00
  0.00000000E+00  0.00000000E+00  0.00000000E+00
  0.00000000E+00  0.00000000E+00  0.00000000E+00
  0.00000000E+00  0.00000000E+00  0.00000000E+00
  0.00000000E+00  0.00000000E+00  0.00000000E+00
  0.00000000E+00  0.00000000E+00  0.00000000E+00
  0.00000000E+00  0.00000000E+00  0.00000000E+00
  0.00000000E+00  0.00000000E+00  0.00000000E+00
  0.00000000E+00  0.00000000E+00  0.00000000E+00
  0.00000000E+00  0.00000000E+00  0.00000000E+00
  0.00000000E+00  0.00000000E+00  0.00000000E+00
  0.00000000E+00  0.00000000E+00  0.00000000E+00
  0.00000000E+00  0.00000000E+00  0.00000000E+00
  0.00000000E+00  0.00000000E+00  0.00000000E+00
  0.00000000E+00  0.00000000E+00  0.00000000E+00
  0.00000000E+00  0.00000000E+00  0.00000000E+00
  0.00000000E+00  0.00000000E+00  0.00000000E+00
  0.00000000E+00  0.00000000E+00  0.00000000E+00
  0.00000000E+00  0.00000000E+00  0.00000000E+00
  0.00000000E+00  0.00000000E+00  0.00000000E+00
  0.00000000E+00  0.00000000E+00  0.00000000E+00
  0.00000000E+00  0.00000000E+00  0.00000000E+00
  0.00000000E+00  0.00000000E+00  0.00000000E+00
  0.00000000E+00  0.00000000E+00  0.00000000E+00
  0.00000000E+00  0.00000000E+00  0.00000000E+00
  0.00000000E+00  0.00000000E+00  0.00000000E+00
  0.00000000E+00  0.00000000E+00  0.00000000E+00
  0.00000000E+00  0.00000000E+00  0.00000000E+00
  0.00000000E+00  0.00000000E+00  0.00000000E+00
  0.00000000E+00  0.00000000E+00  0.00000000E+00
  0.00000000E+00  0.00000000E+00  0.00000000E+00
  0.00000000E+00  0.00000000E+00  0.00000000E+00
  0.00000000E+00  0.00000000E+00  0.00000000E+00
  0.00000000E+00  0.00000000E+00  0.00000000E+00
  0.00000000E+00  0.00000000E+00  0.00000000E+00
  0.00000000E+00  0.00000000E+00  0.00000000E+00
  0.00000000E+00  0.00000000E+00  0.00000000E+00
  0.00000000E+00  0.00000000E+00  0.00000000E+00
  0.00000000E+00  0.00000000E+00  0.00000000E+00
  0.00000000E+00  0.00000000E+00  0.00000000E+00
  0.00000000E+00  0.00000000E+00  0.00000000E+00
  0.00000000E+00  0.00000000E+00  0.00000000E+00
  0.00000000E+00  0.00000000E+00  0.00000000E+00
  0.00000000E+00  0.00000000E+00  0.00000000E+00
  0.00000000E+00  0.00000000E+00  0.00000000E+00
  0.00000000E+00  0.00000000E+00  0.00000000E+00
  0.00000000E+00  0.00000000E+00  0.00000000E+00
  0.00000000E+00  0.00000000E+00  0.00000000E+00
  0.00000000E+00  0.00000000E+00  0.00000000E+00
  0.00000000E+00  0.00000000E+00  0.00000000E+00
  0.00000000E+00  0.00000000E+00  0.00000000E+00
  0.00000000E+00  0.00000000E+00  0.00000000E+00
  0.00000000E+00  0.00000000E+00  0.00000000E+00
  0.00000000E+00  0.00000000E+00  0.00000000E+00
  0.00000000E+00  0.00000000E+00  0.00000000E+00
  0.00000000E+00  0.00000000E+00  0.00000000E+00
  0.00000000E+00  0.00000000E+00  0.00000000E+00
  0.00000000E+00  0.00000000E+00  0.00000000E+00
  0.00000000E+00  0.00000000E+00  0.00000000E+00
  0.00000000E+00  0.00000000E+00  0.00000000E+00
  0.00000000E+00  0.00000000E+00  0.00000000E+00
  0.00000000E+00  0.00000000E+00  0.00000000E+00
  0.00000000E+00  0.00000000E+00  0.00000000E+00
  0.00000000E+00  0.00000000E+00  0.00000000E+00
