Pt   H                                  
   1.00000000000000     
    10.5600004195999997    0.0000000000000000    0.0000000000000000
    -5.2800002097999998    9.1452286273999999    0.0000000000000000
     0.0000000000000000    0.0000000000000000   20.0000000000000000
   Pt   H 
    64     2
Selective dynamics
Direct
  0.9999984446215961  0.0000015553793773  0.0557922949150012   F   F   F
  0.3332209120635344  0.1684177020447632  0.1792038997416653   T   T   T
  0.1692321830709136  0.3335578963937642  0.3092710543878306   T   T   T
  0.0028353704663914  0.0026307357825345  0.4171880990264933   T   T   T
  0.9999984416169312  0.2500015483757210  0.0557922949150012   F   F   F
  0.3332031273935238  0.4165930079389910  0.1891631475445835   T   T   T
  0.1692676980507537  0.0872862652147350  0.3003236012271008   T   T   T
  0.0012118277692183  0.2500752401158653  0.4217408435129675   T   T   T
  0.2499984416169312  0.2500015483757210  0.0557922949150012   F   F   F
  0.0850251867218238  0.4161368423811103  0.1789537491160001   T   T   T
  0.4167614605708808  0.0843017492667395  0.2959607226907516   T   T   T
  0.2499119485443643  0.2466535736225445  0.4502169821482288   T   T   T
  0.2499984446215961  0.0000015553793773  0.0557922949150012   F   F   F
  0.0852598456411659  0.1682836015558314  0.1807380430077165   T   T   T
  0.4159734177322335  0.3343328570733348  0.3069134893090735   T   T   T
  0.2499001950154816  0.0003943810716564  0.4166369504338318   T   T   T
  0.4999984446215961  0.0000015553793773  0.0557922949150012   F   F   F
  0.8341930856060108  0.1665742611940355  0.1774226642649132   T   T   T
  0.6658382027065035  0.3332244727566235  0.2956136716162929   T   T   T
  0.5004153814171363  0.0001213945064288  0.4174593154184315   T   T   T
  0.4999984296188273  0.2500015483757210  0.0557922949150012   F   F   F
  0.8331903507176637  0.4162930834578066  0.1754868457316466   T   T   T
  0.6668616142196930  0.0832714037348203  0.2965467674645290   T   T   T
  0.5006022980726597  0.2503537643416611  0.4182252873081492   T   T   T
  0.7499984076207227  0.2500015483757210  0.0557922949150012   F   F   F
  0.5814095160902593  0.4165858388156314  0.1789058511991469   T   T   T
  0.9182334156643602  0.0842502554616757  0.2973865439578292   T   T   T
  0.7505287905288395  0.2502567056102045  0.4171938422854884   T   T   T
  0.7499984216197078  0.0000015553793773  0.0557922949150012   F   F   F
  0.5829343284322800  0.1668379066581028  0.1764448852937807   T   T   T
  0.9178495382308941  0.3324111132961829  0.2964375277386465   T   T   T
  0.7508657059110373  1.0001124130605539  0.4176986942604171   T   T   T
  0.9999984376190483  0.5000015423780582  0.0557922949150012   F   F   F
  0.3336676734012400  0.6647673993026346  0.1789397272550981   T   T   T
  0.1680318528810692  0.8340957515290393  0.2921465823576052   T   T   T
  0.0012108957806028  0.4999444471667856  0.4148028636255854   T   T   T
  0.9999984326223199  0.7500015093827130  0.0557922949150012   F   F   F
  0.3335331620608338  0.9167496613249461  0.1756347394613353   T   T   T
  0.1691909906948895  0.5810965503880179  0.2971408471551620   T   T   T
  1.0003893750943929  0.7506010304579861  0.4094307201574089   T   T   T
  0.2499984326223199  0.7500015093827130  0.0557922949150012   F   F   F
  0.0839710754818327  0.9182534038788881  0.1750097816571321   T   T   T
  0.4165140979878861  0.5808854180670938  0.3090117998886986   T   T   T
  0.2508312193398451  0.7495884633297039  0.4149766846311939   T   T   T
  0.2499984376190483  0.5000015423780582  0.0557922949150012   F   F   F
  0.0839769915103007  0.6660055648516272  0.1741380062205688   T   T   T
  0.4177895219953737  0.8324476123743688  0.2964307958629231   T   T   T
  0.2494708476317666  0.5015104402151466  0.4341827611806123   T   T   T
  0.4999984376190483  0.5000015423780582  0.0557922949150012   F   F   F
  0.8316398922061701  0.6659326851870959  0.1749157506939126   T   T   T
  0.6660890534294133  0.8322443609108713  0.2972662060441578   T   T   T
  0.5047805462844563  0.5023852381416273  0.4479164213738525   T   T   T
  0.4999984326223199  0.7500015093827130  0.0557922949150012   F   F   F
  0.8331511041230864  0.9167715518692373  0.1757317981517023   T   T   T
  0.6628231589297795  0.5810081636686837  0.2998999586147932   T   T   T
  0.5008114817726163  0.7497546491107177  0.4214627018913896   T   T   T
  0.7499984106242152  0.7500015093827130  0.0557922949150012   F   F   F
  0.5832782747567772  0.9157320503439029  0.1774247361980512   T   T   T
  0.9163537336139924  0.5822986465355283  0.2919131504452505   T   T   T
  0.7485736775757985  0.7483753009854678  0.4170764479232465   T   T   T
  0.7499983926190481  0.5000015423780582  0.0557922949150012   F   F   F
  0.5815249756816128  0.6646286129909137  0.1806016058195856   T   T   T
  0.9160722862901050  0.8341120303659734  0.2925913527410179   T   T   T
  0.7503700178917344  0.5009324788784800  0.4158260700306642   T   T   T
  0.3325074152047766  0.4203837666269024  0.5007153761690978   T   T   T
  0.4002032023173733  0.3368808416377959  0.5051896816577225   T   T   T
 
  0.00000000E+00  0.00000000E+00  0.00000000E+00
  0.00000000E+00  0.00000000E+00  0.00000000E+00
  0.00000000E+00  0.00000000E+00  0.00000000E+00
  0.00000000E+00  0.00000000E+00  0.00000000E+00
  0.00000000E+00  0.00000000E+00  0.00000000E+00
  0.00000000E+00  0.00000000E+00  0.00000000E+00
  0.00000000E+00  0.00000000E+00  0.00000000E+00
  0.00000000E+00  0.00000000E+00  0.00000000E+00
  0.00000000E+00  0.00000000E+00  0.00000000E+00
  0.00000000E+00  0.00000000E+00  0.00000000E+00
  0.00000000E+00  0.00000000E+00  0.00000000E+00
  0.00000000E+00  0.00000000E+00  0.00000000E+00
  0.00000000E+00  0.00000000E+00  0.00000000E+00
  0.00000000E+00  0.00000000E+00  0.00000000E+00
  0.00000000E+00  0.00000000E+00  0.00000000E+00
  0.00000000E+00  0.00000000E+00  0.00000000E+00
  0.00000000E+00  0.00000000E+00  0.00000000E+00
  0.00000000E+00  0.00000000E+00  0.00000000E+00
  0.00000000E+00  0.00000000E+00  0.00000000E+00
  0.00000000E+00  0.00000000E+00  0.00000000E+00
  0.00000000E+00  0.00000000E+00  0.00000000E+00
  0.00000000E+00  0.00000000E+00  0.00000000E+00
  0.00000000E+00  0.00000000E+00  0.00000000E+00
  0.00000000E+00  0.00000000E+00  0.00000000E+00
  0.00000000E+00  0.00000000E+00  0.00000000E+00
  0.00000000E+00  0.00000000E+00  0.00000000E+00
  0.00000000E+00  0.00000000E+00  0.00000000E+00
  0.00000000E+00  0.00000000E+00  0.00000000E+00
  0.00000000E+00  0.00000000E+00  0.00000000E+00
  0.00000000E+00  0.00000000E+00  0.00000000E+00
  0.00000000E+00  0.00000000E+00  0.00000000E+00
  0.00000000E+00  0.00000000E+00  0.00000000E+00
  0.00000000E+00  0.00000000E+00  0.00000000E+00
  0.00000000E+00  0.00000000E+00  0.00000000E+00
  0.00000000E+00  0.00000000E+00  0.00000000E+00
  0.00000000E+00  0.00000000E+00  0.00000000E+00
  0.00000000E+00  0.00000000E+00  0.00000000E+00
  0.00000000E+00  0.00000000E+00  0.00000000E+00
  0.00000000E+00  0.00000000E+00  0.00000000E+00
  0.00000000E+00  0.00000000E+00  0.00000000E+00
  0.00000000E+00  0.00000000E+00  0.00000000E+00
  0.00000000E+00  0.00000000E+00  0.00000000E+00
  0.00000000E+00  0.00000000E+00  0.00000000E+00
  0.00000000E+00  0.00000000E+00  0.00000000E+00
  0.00000000E+00  0.00000000E+00  0.00000000E+00
  0.00000000E+00  0.00000000E+00  0.00000000E+00
  0.00000000E+00  0.00000000E+00  0.00000000E+00
  0.00000000E+00  0.00000000E+00  0.00000000E+00
  0.00000000E+00  0.00000000E+00  0.00000000E+00
  0.00000000E+00  0.00000000E+00  0.00000000E+00
  0.00000000E+00  0.00000000E+00  0.00000000E+00
  0.00000000E+00  0.00000000E+00  0.00000000E+00
  0.00000000E+00  0.00000000E+00  0.00000000E+00
  0.00000000E+00  0.00000000E+00  0.00000000E+00
  0.00000000E+00  0.00000000E+00  0.00000000E+00
  0.00000000E+00  0.00000000E+00  0.00000000E+00
  0.00000000E+00  0.00000000E+00  0.00000000E+00
  0.00000000E+00  0.00000000E+00  0.00000000E+00
  0.00000000E+00  0.00000000E+00  0.00000000E+00
  0.00000000E+00  0.00000000E+00  0.00000000E+00
  0.00000000E+00  0.00000000E+00  0.00000000E+00
  0.00000000E+00  0.00000000E+00  0.00000000E+00
  0.00000000E+00  0.00000000E+00  0.00000000E+00
  0.00000000E+00  0.00000000E+00  0.00000000E+00
  0.00000000E+00  0.00000000E+00  0.00000000E+00
  0.00000000E+00  0.00000000E+00  0.00000000E+00
