Pt   H                                  
   1.00000000000000     
    11.2227001190000006    0.0000000000000000    0.0000000000000000
     5.6113500595000003    9.7191434021000003    0.0000000000000000
     0.0000000000000000    0.0000000000000000   22.0000000000000000
   Pt   H 
    80     2
Selective dynamics
Direct
  0.7851471915614070  0.8690925520632717  0.3269742402954563   F   F   F
  0.0351684548813509  0.8688794447538797  0.3271959398909061   F   F   F
  0.0355815243371822  0.6186683958897845  0.3267427815090898   F   F   F
  0.7856980905755648  0.8685493390576013  0.0230542421090902   F   F   F
  0.0360865959962027  0.8684199881932315  0.0231126397681791   F   F   F
  0.0359198030206471  0.6184127245618498  0.0229034361772733   F   F   F
  0.6187798267972298  0.2020519407889054  0.1262440545409120   F   F   F
  0.3684142583144236  0.9521321582723559  0.1264697046772696   F   F   F
  0.0348279065346873  0.3687699036857097  0.3269765060772727   F   F   F
  0.0358098862416583  0.3685787074739508  0.0230575841136371   F   F   F
  0.8688937065931128  0.2020139208745277  0.1265331337500015   F   F   F
  0.9520383487170037  0.5354051717331032  0.2265681375363613   F   F   F
  0.2847418093812522  0.1187277997822989  0.3270439960681841   F   F   F
  0.5353720573310667  0.6190886398897959  0.3273041224545423   F   F   F
  0.2847938434343860  0.3686684197319039  0.3262756635409119   F   F   F
  0.2858461923071047  0.1184841110124140  0.0230938534727301   F   F   F
  0.5357992924973658  0.6184814779562942  0.0229956921045442   F   F   F
  0.2856609670242634  0.3684380058561842  0.0228816163954519   F   F   F
  0.6185826652428759  0.9521165357741879  0.1262284980045436   F   F   F
  0.7019587676440722  0.7854434666691503  0.2265023904500012   F   F   F
  0.8689722958579083  0.7017907826657037  0.1261745779999970   F   F   F
  0.6188833124135087  0.4519556210427851  0.1263605471636353   F   F   F
  0.2861077983653928  0.8671220230148080  0.3282741976409085   F   F   F
  0.2856225360903082  0.8688545075665246  0.0230422905272718   F   F   F
  0.6188026425121080  0.7020294422681062  0.1261393909909074   F   F   F
  0.2020747522004740  0.0341755093692981  0.2273316710363602   F   F   F
  0.8684490522270352  0.9525551110604695  0.4306317641863657   F   F   F
  0.1181048032505387  0.4523057636386127  0.4302375491909061   F   F   F
  0.1170095952484260  0.9538642491782667  0.4308364527818185   F   F   F
  0.8700915738395310  0.4525587252627261  0.4305996757772732   F   F   F
  0.3683143131886126  0.9543668595728150  0.4306397834863631   F   F   F
  0.8695815329683185  0.2012241005290036  0.4308295310045480   F   F   F
  0.1182394818414139  0.2026116175808781  0.4305862929545441   F   F   F
  0.6184986090034315  0.9535354977680015  0.4303839172499977   F   F   F
  0.8692515982808615  0.7027811862950983  0.4303321023772710   F   F   F
  0.3681023708815374  0.2023926314097793  0.4302783422363632   F   F   F
  0.3667245218853168  0.7051191018458738  0.4316682032090924   F   F   F
  0.6211175059549419  0.4506616873822011  0.4315898462136332   F   F   F
  0.1170229265577873  0.7029175062098432  0.4303226807227247   F   F   F
  0.6186660103732109  0.2012157806394157  0.4303706920454573   F   F   F
  0.5348893268969448  0.3693088184319251  0.3275126905818198   F   F   F
  0.5357827389426291  0.3687186030227423  0.0229844978000031   F   F   F
  0.5347956460927108  0.1193538183775900  0.3267764460818157   F   F   F
  0.5357583320398902  0.1185426027617922  0.0229251353772710   F   F   F
  0.8689904101705324  0.4515578519966823  0.1264377484045482   F   F   F
  0.1189082005570228  0.4517082729792250  0.1262133181636358   F   F   F
  0.0349614830769909  0.1188281569392657  0.3272131494636383   F   F   F
  0.0359276144314506  0.1186099612905096  0.0232190383045463   F   F   F
  0.1188078564077841  0.9520269332172546  0.1265391782681817   F   F   F
  0.3661873848528856  0.4503703913921271  0.4296181104727239   F   F   F
  0.4520002007099677  0.5355249175226078  0.2269492987954536   F   F   F
  0.6210367796429637  0.7052944229343154  0.4293963591454570   F   F   F
  0.3685662553596813  0.2020870905738050  0.1262109387499990   F   F   F
  0.1186411882461513  0.2018149375361844  0.1267561024818207   F   F   F
  0.9519593787734735  0.7855159816296577  0.2265707629454567   F   F   F
  0.7856930335110519  0.6187818164613716  0.3268017518363635   F   F   F
  0.2855159752412746  0.6186819049198036  0.3275070380909071   F   F   F
  0.7857669056713732  0.6183196031660074  0.0229813066136373   F   F   F
  0.2860621793566125  0.6184891513794497  0.0230124639954568   F   F   F
  0.3688588122697141  0.7020650874876111  0.1263592977863652   F   F   F
  0.3689308704650998  0.4520187209554649  0.1261984142863639   F   F   F
  0.2016180467481519  0.2850743722642619  0.2266995175954563   F   F   F
  0.7833221398620651  0.3700207417891335  0.3282051933636367   F   F   F
  0.7860182535829097  0.3684703993076397  0.0230254195272721   F   F   F
  0.9516444816237737  0.0352457966332693  0.2268554836909118   F   F   F
  0.4519498312755204  0.7854217186825991  0.2266954907499965   F   F   F
  0.7019095559961315  0.5355091562159089  0.2266637072227269   F   F   F
  0.2022566552605838  0.7851361793726781  0.2269697879545447   F   F   F
  0.4517292762653824  0.0356363154107981  0.2266132612545420   F   F   F
  0.1188591035657467  0.7019942195549689  0.1262099775136392   F   F   F
  0.7019524589422801  0.0354951292441541  0.2266031288136361   F   F   F
  0.7849932975653218  0.1190085543084081  0.3272353906318202   F   F   F
  0.5348518808688212  0.8695455333722037  0.3268018779090909   F   F   F
  0.7856537516991935  0.1188716419649083  0.0231457061545441   F   F   F
  0.5356211748361588  0.8684771422835666  0.0229936227272702   F   F   F
  0.2021387350610340  0.5357328662086616  0.2263634628636382   F   F   F
  0.9506824751227541  0.2856164640085694  0.2273029733727299   F   F   F
  0.8688540402414233  0.9519943998049030  0.1262278593136372   F   F   F
  0.7016756289624340  0.2857136151628339  0.2269816677590910   F   F   F
  0.4522033312055314  0.2856201669069094  0.2263929123818187   F   F   F
  0.4720095030019493  0.5569821606120513  0.5100642917863638   T   T   T
  0.5139060941939420  0.5992760526037203  0.5096105866863632   T   T   T
 
  0.00000000E+00  0.00000000E+00  0.00000000E+00
  0.00000000E+00  0.00000000E+00  0.00000000E+00
  0.00000000E+00  0.00000000E+00  0.00000000E+00
  0.00000000E+00  0.00000000E+00  0.00000000E+00
  0.00000000E+00  0.00000000E+00  0.00000000E+00
  0.00000000E+00  0.00000000E+00  0.00000000E+00
  0.00000000E+00  0.00000000E+00  0.00000000E+00
  0.00000000E+00  0.00000000E+00  0.00000000E+00
  0.00000000E+00  0.00000000E+00  0.00000000E+00
  0.00000000E+00  0.00000000E+00  0.00000000E+00
  0.00000000E+00  0.00000000E+00  0.00000000E+00
  0.00000000E+00  0.00000000E+00  0.00000000E+00
  0.00000000E+00  0.00000000E+00  0.00000000E+00
  0.00000000E+00  0.00000000E+00  0.00000000E+00
  0.00000000E+00  0.00000000E+00  0.00000000E+00
  0.00000000E+00  0.00000000E+00  0.00000000E+00
  0.00000000E+00  0.00000000E+00  0.00000000E+00
  0.00000000E+00  0.00000000E+00  0.00000000E+00
  0.00000000E+00  0.00000000E+00  0.00000000E+00
  0.00000000E+00  0.00000000E+00  0.00000000E+00
  0.00000000E+00  0.00000000E+00  0.00000000E+00
  0.00000000E+00  0.00000000E+00  0.00000000E+00
  0.00000000E+00  0.00000000E+00  0.00000000E+00
  0.00000000E+00  0.00000000E+00  0.00000000E+00
  0.00000000E+00  0.00000000E+00  0.00000000E+00
  0.00000000E+00  0.00000000E+00  0.00000000E+00
  0.00000000E+00  0.00000000E+00  0.00000000E+00
  0.00000000E+00  0.00000000E+00  0.00000000E+00
  0.00000000E+00  0.00000000E+00  0.00000000E+00
  0.00000000E+00  0.00000000E+00  0.00000000E+00
  0.00000000E+00  0.00000000E+00  0.00000000E+00
  0.00000000E+00  0.00000000E+00  0.00000000E+00
  0.00000000E+00  0.00000000E+00  0.00000000E+00
  0.00000000E+00  0.00000000E+00  0.00000000E+00
  0.00000000E+00  0.00000000E+00  0.00000000E+00
  0.00000000E+00  0.00000000E+00  0.00000000E+00
  0.00000000E+00  0.00000000E+00  0.00000000E+00
  0.00000000E+00  0.00000000E+00  0.00000000E+00
  0.00000000E+00  0.00000000E+00  0.00000000E+00
  0.00000000E+00  0.00000000E+00  0.00000000E+00
  0.00000000E+00  0.00000000E+00  0.00000000E+00
  0.00000000E+00  0.00000000E+00  0.00000000E+00
  0.00000000E+00  0.00000000E+00  0.00000000E+00
  0.00000000E+00  0.00000000E+00  0.00000000E+00
  0.00000000E+00  0.00000000E+00  0.00000000E+00
  0.00000000E+00  0.00000000E+00  0.00000000E+00
  0.00000000E+00  0.00000000E+00  0.00000000E+00
  0.00000000E+00  0.00000000E+00  0.00000000E+00
  0.00000000E+00  0.00000000E+00  0.00000000E+00
  0.00000000E+00  0.00000000E+00  0.00000000E+00
  0.00000000E+00  0.00000000E+00  0.00000000E+00
  0.00000000E+00  0.00000000E+00  0.00000000E+00
  0.00000000E+00  0.00000000E+00  0.00000000E+00
  0.00000000E+00  0.00000000E+00  0.00000000E+00
  0.00000000E+00  0.00000000E+00  0.00000000E+00
  0.00000000E+00  0.00000000E+00  0.00000000E+00
  0.00000000E+00  0.00000000E+00  0.00000000E+00
  0.00000000E+00  0.00000000E+00  0.00000000E+00
  0.00000000E+00  0.00000000E+00  0.00000000E+00
  0.00000000E+00  0.00000000E+00  0.00000000E+00
  0.00000000E+00  0.00000000E+00  0.00000000E+00
  0.00000000E+00  0.00000000E+00  0.00000000E+00
  0.00000000E+00  0.00000000E+00  0.00000000E+00
  0.00000000E+00  0.00000000E+00  0.00000000E+00
  0.00000000E+00  0.00000000E+00  0.00000000E+00
  0.00000000E+00  0.00000000E+00  0.00000000E+00
  0.00000000E+00  0.00000000E+00  0.00000000E+00
  0.00000000E+00  0.00000000E+00  0.00000000E+00
  0.00000000E+00  0.00000000E+00  0.00000000E+00
  0.00000000E+00  0.00000000E+00  0.00000000E+00
  0.00000000E+00  0.00000000E+00  0.00000000E+00
  0.00000000E+00  0.00000000E+00  0.00000000E+00
  0.00000000E+00  0.00000000E+00  0.00000000E+00
  0.00000000E+00  0.00000000E+00  0.00000000E+00
  0.00000000E+00  0.00000000E+00  0.00000000E+00
  0.00000000E+00  0.00000000E+00  0.00000000E+00
  0.00000000E+00  0.00000000E+00  0.00000000E+00
  0.00000000E+00  0.00000000E+00  0.00000000E+00
  0.00000000E+00  0.00000000E+00  0.00000000E+00
  0.00000000E+00  0.00000000E+00  0.00000000E+00
  0.00000000E+00  0.00000000E+00  0.00000000E+00
  0.00000000E+00  0.00000000E+00  0.00000000E+00
