Pt   H                                  
   1.00000000000000     
    10.5600004195999997    0.0000000000000000    0.0000000000000000
    -5.2800002097999998    9.1452286273999999    0.0000000000000000
     0.0000000000000000    0.0000000000000000   20.0000000000000000
   Pt   H 
    64     2
Selective dynamics
Direct
  0.9999984446215961  0.0000015553793773  0.0557922949150012   F   F   F
  0.3332223185871133  0.1673082272683852  0.1784164378254367   T   T   T
  0.1671967674570585  0.3328097628293044  0.3005723584929734   T   T   T
  0.0002456819280827  0.0001425049776307  0.4185449914727591   T   T   T
  0.9999984416169312  0.2500015483757210  0.0557922949150012   F   F   F
  0.3335967075715410  0.4164160719951361  0.1809070129047533   T   T   T
  0.1684014331327056  0.0859137174688351  0.3009242863156784   T   T   T
  0.9997013217122352  0.2495342936012471  0.4182064767144034   T   T   T
  0.2499984416169312  0.2500015483757210  0.0557922949150012   F   F   F
  0.0837821476682146  0.4162198266047462  0.1769386650930582   T   T   T
  0.4164733185771580  0.0834682119126246  0.2961441761555575   T   T   T
  0.2489609498692345  0.2487144638957914  0.4336201624283003   T   T   T
  0.2499984446215961  0.0000015553793773  0.0557922949150012   F   F   F
  0.0842955792931976  0.1672015766993501  0.1793226682423713   T   T   T
  0.4158257432667450  0.3343284335789775  0.3017735492284193   T   T   T
  0.2501046195163339  0.9995724886501811  0.4192366356851154   T   T   T
  0.4999984446215961  0.0000015553793773  0.0557922949150012   F   F   F
  0.8334714934975065  0.1666522045882985  0.1776833453830349   T   T   T
  0.6667252676838105  0.3337228381920477  0.2961641789096748   T   T   T
  0.5001671643168784  0.9997780761328789  0.4193201191495244   T   T   T
  0.4999984296188273  0.2500015483757210  0.0557922949150012   F   F   F
  0.8331561286560712  0.4166057731144415  0.1769295473733762   T   T   T
  0.6664567561421072  0.0837352448780820  0.2974861117546782   T   T   T
  0.5007115594259005  0.2495154259958236  0.4156929509081455   T   T   T
  0.7499984076207227  0.2500015483757210  0.0557922949150012   F   F   F
  0.5826913725004004  0.4167776881408206  0.1784084011882747   T   T   T
  0.9165491802576199  0.0831621737086940  0.2972450658263578   T   T   T
  0.7504351325712932  0.2500547936719829  0.4193876088892732   T   T   T
  0.7499984216197078  0.0000015553793773  0.0557922949150012   F   F   F
  0.5831685145335209  0.1668361674295512  0.1764436201198645   T   T   T
  0.9170877153217794  0.3337233913584952  0.2968094018486930   T   T   T
  0.7501238813663603  0.0001387399079121  0.4189996154551636   T   T   T
  0.9999984376190483  0.5000015423780582  0.0557922949150012   F   F   F
  0.3337958926293842  0.6662370654108107  0.1769551261566299   T   T   T
  0.1668894042239980  0.8341108825277282  0.2960977391990756   T   T   T
  0.0001377897441807  0.5002205405780864  0.4181024406385362   T   T   T
  0.9999984326223199  0.7500015093827130  0.0557922949150012   F   F   F
  0.3333956502583932  0.9168402425859512  0.1769247309752372   T   T   T
  0.1668813841766421  0.5832675014977633  0.2953537083055636   T   T   T
  1.0000916178806472  0.7501510889926861  0.4153811770984175   T   T   T
  0.2499984326223199  0.7500015093827130  0.0557922949150012   F   F   F
  0.0836960654470458  0.9176076159371672  0.1771107136991337   T   T   T
  0.4172996281355876  0.5830009520805559  0.3005030250795507   T   T   T
  0.2500097474969816  0.7500761756054902  0.4184060332211657   T   T   T
  0.2499984376190483  0.5000015423780582  0.0557922949150012   F   F   F
  0.0832379792047925  0.6667373557469257  0.1759772010557072   T   T   T
  0.4163941693369089  0.8330779586930421  0.2968490747165760   T   T   T
  0.2496557629342012  0.5004669671385462  0.4182260926228380   T   T   T
  0.4999984376190483  0.5000015423780582  0.0557922949150012   F   F   F
  0.8323581937967827  0.6662680978408460  0.1772007587566529   T   T   T
  0.6670520609101891  0.8336551293295820  0.2972905478532026   T   T   T
  0.5013347546279567  0.5013655154604454  0.4327329865819218   T   T   T
  0.4999984326223199  0.7500015093827130  0.0557922949150012   F   F   F
  0.8331312694833427  0.9168468809367286  0.1764492084824037   T   T   T
  0.6642781618560690  0.5818562904724767  0.3010574912469475   T   T   T
  0.5007179514155148  0.7505833960436414  0.4181469062773751   T   T   T
  0.7499984106242152  0.7500015093827130  0.0557922949150012   F   F   F
  0.5833495838952140  0.9165114802019424  0.1777041053469662   T   T   T
  0.9160053606947662  0.5832695771953519  0.2961131917324802   T   T   T
  0.7502540834345341  0.7501803887231068  0.4188268277615592   T   T   T
  0.7499983926190481  0.5000015423780582  0.0557922949150012   F   F   F
  0.5828147649979997  0.6656998130583568  0.1793556141356510   T   T   T
  0.9164145855168830  0.8337274081953608  0.2951380554936158   T   T   T
  0.7506397385175068  0.5001456887455543  0.4193196513115542   T   T   T
  0.3552635654316003  0.4005375347206595  0.5151244117741292   T   T   T
  0.3957453480294079  0.3496448440816078  0.5152705396123016   T   T   T
 
  0.00000000E+00  0.00000000E+00  0.00000000E+00
  0.00000000E+00  0.00000000E+00  0.00000000E+00
  0.00000000E+00  0.00000000E+00  0.00000000E+00
  0.00000000E+00  0.00000000E+00  0.00000000E+00
  0.00000000E+00  0.00000000E+00  0.00000000E+00
  0.00000000E+00  0.00000000E+00  0.00000000E+00
  0.00000000E+00  0.00000000E+00  0.00000000E+00
  0.00000000E+00  0.00000000E+00  0.00000000E+00
  0.00000000E+00  0.00000000E+00  0.00000000E+00
  0.00000000E+00  0.00000000E+00  0.00000000E+00
  0.00000000E+00  0.00000000E+00  0.00000000E+00
  0.00000000E+00  0.00000000E+00  0.00000000E+00
  0.00000000E+00  0.00000000E+00  0.00000000E+00
  0.00000000E+00  0.00000000E+00  0.00000000E+00
  0.00000000E+00  0.00000000E+00  0.00000000E+00
  0.00000000E+00  0.00000000E+00  0.00000000E+00
  0.00000000E+00  0.00000000E+00  0.00000000E+00
  0.00000000E+00  0.00000000E+00  0.00000000E+00
  0.00000000E+00  0.00000000E+00  0.00000000E+00
  0.00000000E+00  0.00000000E+00  0.00000000E+00
  0.00000000E+00  0.00000000E+00  0.00000000E+00
  0.00000000E+00  0.00000000E+00  0.00000000E+00
  0.00000000E+00  0.00000000E+00  0.00000000E+00
  0.00000000E+00  0.00000000E+00  0.00000000E+00
  0.00000000E+00  0.00000000E+00  0.00000000E+00
  0.00000000E+00  0.00000000E+00  0.00000000E+00
  0.00000000E+00  0.00000000E+00  0.00000000E+00
  0.00000000E+00  0.00000000E+00  0.00000000E+00
  0.00000000E+00  0.00000000E+00  0.00000000E+00
  0.00000000E+00  0.00000000E+00  0.00000000E+00
  0.00000000E+00  0.00000000E+00  0.00000000E+00
  0.00000000E+00  0.00000000E+00  0.00000000E+00
  0.00000000E+00  0.00000000E+00  0.00000000E+00
  0.00000000E+00  0.00000000E+00  0.00000000E+00
  0.00000000E+00  0.00000000E+00  0.00000000E+00
  0.00000000E+00  0.00000000E+00  0.00000000E+00
  0.00000000E+00  0.00000000E+00  0.00000000E+00
  0.00000000E+00  0.00000000E+00  0.00000000E+00
  0.00000000E+00  0.00000000E+00  0.00000000E+00
  0.00000000E+00  0.00000000E+00  0.00000000E+00
  0.00000000E+00  0.00000000E+00  0.00000000E+00
  0.00000000E+00  0.00000000E+00  0.00000000E+00
  0.00000000E+00  0.00000000E+00  0.00000000E+00
  0.00000000E+00  0.00000000E+00  0.00000000E+00
  0.00000000E+00  0.00000000E+00  0.00000000E+00
  0.00000000E+00  0.00000000E+00  0.00000000E+00
  0.00000000E+00  0.00000000E+00  0.00000000E+00
  0.00000000E+00  0.00000000E+00  0.00000000E+00
  0.00000000E+00  0.00000000E+00  0.00000000E+00
  0.00000000E+00  0.00000000E+00  0.00000000E+00
  0.00000000E+00  0.00000000E+00  0.00000000E+00
  0.00000000E+00  0.00000000E+00  0.00000000E+00
  0.00000000E+00  0.00000000E+00  0.00000000E+00
  0.00000000E+00  0.00000000E+00  0.00000000E+00
  0.00000000E+00  0.00000000E+00  0.00000000E+00
  0.00000000E+00  0.00000000E+00  0.00000000E+00
  0.00000000E+00  0.00000000E+00  0.00000000E+00
  0.00000000E+00  0.00000000E+00  0.00000000E+00
  0.00000000E+00  0.00000000E+00  0.00000000E+00
  0.00000000E+00  0.00000000E+00  0.00000000E+00
  0.00000000E+00  0.00000000E+00  0.00000000E+00
  0.00000000E+00  0.00000000E+00  0.00000000E+00
  0.00000000E+00  0.00000000E+00  0.00000000E+00
  0.00000000E+00  0.00000000E+00  0.00000000E+00
  0.00000000E+00  0.00000000E+00  0.00000000E+00
  0.00000000E+00  0.00000000E+00  0.00000000E+00
