PtM\(2)                                 
   1.00000000000000     
    10.5600004195999997    0.0000000000000000    0.0000000000000000
     5.2800002097999998    9.1452286273999999    0.0000000000000000
     0.0000000000000000    0.0000000000000000   22.0000000000000000
   Co   Pt   H 
    64    16     2
Selective dynamics
Direct
  0.7857508636039583  0.8686651425748479  0.3112764132772696   F   F   F
  0.0355070310549266  0.8687655257186080  0.3113071002318151   F   F   F
  0.0357379061048348  0.6188070298696147  0.3113367627000017   F   F   F
  0.7867273660717160  0.8679642656956403  0.0512459387681830   F   F   F
  0.0365582889316727  0.8681155879376945  0.0512968500727240   F   F   F
  0.0366385040692379  0.6180027208140757  0.0513268320045484   F   F   F
  0.6197458139953724  0.2015653887074080  0.1359842224363632   F   F   F
  0.3696581151044427  0.9516587404413883  0.1359628183681849   F   F   F
  0.0359383280668908  0.3684858002131861  0.3113183546954517   F   F   F
  0.0365963083346230  0.3681210410982487  0.0513400607590881   F   F   F
  0.8696445805581874  0.2016593805292644  0.1359685681136398   F   F   F
  0.9523528847098817  0.5352901583054006  0.2261148901954542   F   F   F
  0.2856534544343745  0.1188211430651691  0.3113142878272726   F   F   F
  0.5357505321978024  0.6187405661512386  0.3113461318500015   F   F   F
  0.2857583879588077  0.3686253748320354  0.3114191435590925   F   F   F
  0.2866892341020844  0.1181642286735496  0.0512986875090888   F   F   F
  0.5364312247542529  0.6180888009911953  0.0512321504227273   F   F   F
  0.2865494571265899  0.3680887902806873  0.0513541229409071   F   F   F
  0.6196855222964857  0.9516086189169641  0.1359457447227257   F   F   F
  0.7024740941973917  0.7851387420635092  0.2259304276181808   F   F   F
  0.8696068445877501  0.7016434521139203  0.1359744543409107   F   F   F
  0.6196787033340101  0.4516972511571211  0.1359518773045423   F   F   F
  0.2860703153949089  0.8680237540498581  0.3115239100909122   F   F   F
  0.2864484617105987  0.8681479668001657  0.0512844256863616   F   F   F
  0.6195877735811877  0.7016649391655889  0.1359121752636341   F   F   F
  0.2031124565005200  0.0345860008849144  0.2260604868454550   F   F   F
  0.5355585572826769  0.3689630510920665  0.3114707751636345   F   F   F
  0.5366727813368897  0.3679689281050500  0.0512926962318190   F   F   F
  0.5358944708294615  0.1185666011182320  0.3113403251409110   F   F   F
  0.5366727297449145  0.1180819610856503  0.0512831161363607   F   F   F
  0.8695347579033736  0.4517599086940010  0.1360032284090877   F   F   F
  0.1196881004386654  0.4516315490708749  0.1360589541590898   F   F   F
  0.0356715280309388  0.1186008867126986  0.3112925503954571   F   F   F
  0.0367073024034212  0.1181355239455755  0.0512976033590888   F   F   F
  0.1195841194112788  0.9517098196345941  0.1359996366499985   F   F   F
  0.4527187325179298  0.5353271594579994  0.2261684661181818   F   F   F
  0.3697648022638447  0.2016092602732655  0.1360238306954571   F   F   F
  0.1197124802163927  0.2016080101678313  0.1360219540863667   F   F   F
  0.9527424970505294  0.7851306349725817  0.2259699671363649   F   F   F
  0.7855870584284190  0.6189120643022292  0.3113680531227274   F   F   F
  0.2860731461723134  0.6184528914076992  0.3114701822136396   F   F   F
  0.7866122012324155  0.6180570610520562  0.0512491053409079   F   F   F
  0.2865146433568171  0.6180287077969808  0.0513054318772745   F   F   F
  0.3695989973367162  0.7017014523150777  0.1359655195227276   F   F   F
  0.3697484436136094  0.4516451135868707  0.1360192398909064   F   F   F
  0.2029269010579569  0.2854550107559390  0.2260713119500011   F   F   F
  0.7852461341629891  0.3688480274176626  0.3115025935590907   F   F   F
  0.7867185081021617  0.3680613783361437  0.0512697199636349   F   F   F
  0.9527663661170678  0.0353436229939135  0.2260129301409108   F   F   F
  0.4526591151391415  0.7849726932021923  0.2260744653000017   F   F   F
  0.7022775119280809  0.5353523845354005  0.2260997897227242   F   F   F
  0.2028183706397115  0.7849313470953447  0.2261181819727298   F   F   F
  0.4526043672910447  0.0349750059765270  0.2260943988636370   F   F   F
  0.1196483908887416  0.7016781133140881  0.1360106184272709   F   F   F
  0.7024279859368505  0.0354111051778148  0.2259905291227255   F   F   F
  0.7858801910131632  0.1184095061938208  0.3112983189590892   F   F   F
  0.5360276978931182  0.8684497664830886  0.3113608216181802   F   F   F
  0.7867138903031332  0.1180528005352812  0.0512607778181788   F   F   F
  0.5365868230827999  0.8681333544809533  0.0512481075045486   F   F   F
  0.2029438256485534  0.5354260115082639  0.2261117238545438   F   F   F
  0.9520655414636323  0.2856729028263487  0.2260588750136350   F   F   F
  0.8695596740848686  0.9516473608789653  0.1359644263590880   F   F   F
  0.7022984804701196  0.2854832984577058  0.2261088587818207   F   F   F
  0.4528519463570433  0.2855300658615008  0.2261043921999999   F   F   F
  0.8688724620615105  0.9520035888676546  0.4088669805863603   F   F   F
  0.1189537524264068  0.4519205134377273  0.4088628642272738   F   F   F
  0.1188268311758804  0.9521395919628901  0.4088395484999978   F   F   F
  0.8688944006899035  0.4521675354851808  0.4087949132318158   F   F   F
  0.3690469412916286  0.9520002197118629  0.4087946893863617   F   F   F
  0.8690330573124498  0.2019210556384934  0.4088511701181829   F   F   F
  0.1189524534748898  0.2020689351891463  0.4088321254863629   F   F   F
  0.6190782336046894  0.9520172865787870  0.4088828177045443   F   F   F
  0.8689153021949636  0.7021845591109823  0.4088655570954529   F   F   F
  0.3688073656094275  0.2020704692459248  0.4088891133409120   F   F   F
  0.3688035133460801  0.7020681415949852  0.4089510180272740   F   F   F
  0.6189427774963718  0.4519365320859166  0.4089319357636398   F   F   F
  0.1188023503510252  0.7020098969056860  0.4089187382727246   F   F   F
  0.6189044053990003  0.2019123632259578  0.4089098874227304   F   F   F
  0.3690370871803665  0.4521283059793291  0.4090606618636343   F   F   F
  0.6188983597934765  0.7020009246422987  0.4089769079272756   F   F   F
  0.4738918075673624  0.5554838938831708  0.5462187276272701   T   T   T
  0.5161111841328960  0.5954459569643545  0.5461496435727249   T   T   T
 
  0.00000000E+00  0.00000000E+00  0.00000000E+00
  0.00000000E+00  0.00000000E+00  0.00000000E+00
  0.00000000E+00  0.00000000E+00  0.00000000E+00
  0.00000000E+00  0.00000000E+00  0.00000000E+00
  0.00000000E+00  0.00000000E+00  0.00000000E+00
  0.00000000E+00  0.00000000E+00  0.00000000E+00
  0.00000000E+00  0.00000000E+00  0.00000000E+00
  0.00000000E+00  0.00000000E+00  0.00000000E+00
  0.00000000E+00  0.00000000E+00  0.00000000E+00
  0.00000000E+00  0.00000000E+00  0.00000000E+00
  0.00000000E+00  0.00000000E+00  0.00000000E+00
  0.00000000E+00  0.00000000E+00  0.00000000E+00
  0.00000000E+00  0.00000000E+00  0.00000000E+00
  0.00000000E+00  0.00000000E+00  0.00000000E+00
  0.00000000E+00  0.00000000E+00  0.00000000E+00
  0.00000000E+00  0.00000000E+00  0.00000000E+00
  0.00000000E+00  0.00000000E+00  0.00000000E+00
  0.00000000E+00  0.00000000E+00  0.00000000E+00
  0.00000000E+00  0.00000000E+00  0.00000000E+00
  0.00000000E+00  0.00000000E+00  0.00000000E+00
  0.00000000E+00  0.00000000E+00  0.00000000E+00
  0.00000000E+00  0.00000000E+00  0.00000000E+00
  0.00000000E+00  0.00000000E+00  0.00000000E+00
  0.00000000E+00  0.00000000E+00  0.00000000E+00
  0.00000000E+00  0.00000000E+00  0.00000000E+00
  0.00000000E+00  0.00000000E+00  0.00000000E+00
  0.00000000E+00  0.00000000E+00  0.00000000E+00
  0.00000000E+00  0.00000000E+00  0.00000000E+00
  0.00000000E+00  0.00000000E+00  0.00000000E+00
  0.00000000E+00  0.00000000E+00  0.00000000E+00
  0.00000000E+00  0.00000000E+00  0.00000000E+00
  0.00000000E+00  0.00000000E+00  0.00000000E+00
  0.00000000E+00  0.00000000E+00  0.00000000E+00
  0.00000000E+00  0.00000000E+00  0.00000000E+00
  0.00000000E+00  0.00000000E+00  0.00000000E+00
  0.00000000E+00  0.00000000E+00  0.00000000E+00
  0.00000000E+00  0.00000000E+00  0.00000000E+00
  0.00000000E+00  0.00000000E+00  0.00000000E+00
  0.00000000E+00  0.00000000E+00  0.00000000E+00
  0.00000000E+00  0.00000000E+00  0.00000000E+00
  0.00000000E+00  0.00000000E+00  0.00000000E+00
  0.00000000E+00  0.00000000E+00  0.00000000E+00
  0.00000000E+00  0.00000000E+00  0.00000000E+00
  0.00000000E+00  0.00000000E+00  0.00000000E+00
  0.00000000E+00  0.00000000E+00  0.00000000E+00
  0.00000000E+00  0.00000000E+00  0.00000000E+00
  0.00000000E+00  0.00000000E+00  0.00000000E+00
  0.00000000E+00  0.00000000E+00  0.00000000E+00
  0.00000000E+00  0.00000000E+00  0.00000000E+00
  0.00000000E+00  0.00000000E+00  0.00000000E+00
  0.00000000E+00  0.00000000E+00  0.00000000E+00
  0.00000000E+00  0.00000000E+00  0.00000000E+00
  0.00000000E+00  0.00000000E+00  0.00000000E+00
  0.00000000E+00  0.00000000E+00  0.00000000E+00
  0.00000000E+00  0.00000000E+00  0.00000000E+00
  0.00000000E+00  0.00000000E+00  0.00000000E+00
  0.00000000E+00  0.00000000E+00  0.00000000E+00
  0.00000000E+00  0.00000000E+00  0.00000000E+00
  0.00000000E+00  0.00000000E+00  0.00000000E+00
  0.00000000E+00  0.00000000E+00  0.00000000E+00
  0.00000000E+00  0.00000000E+00  0.00000000E+00
  0.00000000E+00  0.00000000E+00  0.00000000E+00
  0.00000000E+00  0.00000000E+00  0.00000000E+00
  0.00000000E+00  0.00000000E+00  0.00000000E+00
  0.00000000E+00  0.00000000E+00  0.00000000E+00
  0.00000000E+00  0.00000000E+00  0.00000000E+00
  0.00000000E+00  0.00000000E+00  0.00000000E+00
  0.00000000E+00  0.00000000E+00  0.00000000E+00
  0.00000000E+00  0.00000000E+00  0.00000000E+00
  0.00000000E+00  0.00000000E+00  0.00000000E+00
  0.00000000E+00  0.00000000E+00  0.00000000E+00
  0.00000000E+00  0.00000000E+00  0.00000000E+00
  0.00000000E+00  0.00000000E+00  0.00000000E+00
  0.00000000E+00  0.00000000E+00  0.00000000E+00
  0.00000000E+00  0.00000000E+00  0.00000000E+00
  0.00000000E+00  0.00000000E+00  0.00000000E+00
  0.00000000E+00  0.00000000E+00  0.00000000E+00
  0.00000000E+00  0.00000000E+00  0.00000000E+00
  0.00000000E+00  0.00000000E+00  0.00000000E+00
  0.00000000E+00  0.00000000E+00  0.00000000E+00
  0.00000000E+00  0.00000000E+00  0.00000000E+00
  0.00000000E+00  0.00000000E+00  0.00000000E+00
