Pt111\(1\1\1)\(2)                       
   1.00000000000000     
    10.5600004195999997    0.0000000000000000    0.0000000000000000
    -5.2800002097999998    9.1452286273999999    0.0000000000000000
     0.0000000000000000    0.0000000000000000   20.0000000000000000
   Pt   H 
    64     2
Selective dynamics
Direct
  0.9999984446215961  0.0000015553793773  0.0557922949150012   F   F   F
  0.3333093871353441  0.1666176119790705  0.1774143513350026   F   F   F
  0.1666198851787044  0.3333428046146807  0.2974233158499970   F   F   F
  0.9999903608415153  0.9999997277050028  0.4189938819050028   F   F   F
  0.9999984416169312  0.2500015483757210  0.0557922949150012   F   F   F
  0.3333107677271556  0.4166884205368859  0.1773756399749971   F   F   F
  0.1666726844526281  0.0833058891625100  0.2974041201499986   F   F   F
  0.9999658571006478  0.2499802220308140  0.4189969351199991   F   F   F
  0.2499984416169312  0.2500015483757210  0.0557922949150012   F   F   F
  0.0833464675155469  0.4166522189815680  0.1774445011750032   F   F   F
  0.4166333798876991  0.0833327894413358  0.2973862368549973   F   F   F
  0.2499351970850086  0.2499607171493849  0.4189164944899986   F   F   F
  0.2499984446215961  0.0000015553793773  0.0557922949150012   F   F   F
  0.0833350786703448  0.1666564541025934  0.1774063628299984   F   F   F
  0.4167070796416752  0.3333059367118949  0.2974608130449994   F   F   F
  0.2500204042274490  0.0000102761455025  0.4190173634549978   F   F   F
  0.4999984446215961  0.0000015553793773  0.0557922949150012   F   F   F
  0.8333327515890332  0.1666681628749345  0.1774204691649999   F   F   F
  0.6666695432155478  0.3333642401422097  0.2973914656500014   F   F   F
  0.5000029278500975  0.9999990495262239  0.4189875686600004   F   F   F
  0.4999984296188273  0.2500015483757210  0.0557922949150012   F   F   F
  0.8333056570910742  0.4166400370882002  0.1774236804049991   F   F   F
  0.6666713416197396  0.0833287408820809  0.2974204842750012   F   F   F
  0.5000575728976955  0.2499475207925812  0.4189816508449979   F   F   F
  0.7499984076207227  0.2500015483757210  0.0557922949150012   F   F   F
  0.5833693223902259  0.4166835250004439  0.1774181702149988   F   F   F
  0.9166865737860377  0.0833373053481168  0.2974069166649969   F   F   F
  0.7499989111450702  0.2499947431330654  0.4189840297350003   F   F   F
  0.7499984216197078  0.0000015553793773  0.0557922949150012   F   F   F
  0.5833288711316484  0.1666723782096824  0.1774196594849968   F   F   F
  0.9166910458587338  0.3333497509801120  0.2974068718299989   F   F   F
  0.7499994028856776  0.9999966870593155  0.4190024988100021   F   F   F
  0.9999984376190483  0.5000015423780582  0.0557922949150012   F   F   F
  0.3333459700681729  0.6666484434335302  0.1774466764300016   F   F   F
  0.1666748867443815  0.8333377854400013  0.2973885611500009   F   F   F
  0.0000204550782001  0.5000006772602674  0.4189867247550012   F   F   F
  0.9999984326223199  0.7500015093827130  0.0557922949150012   F   F   F
  0.3333554214169681  0.9166998421430819  0.1774242546700009   F   F   F
  0.1666712844516525  0.5833291113375552  0.2973781558699997   F   F   F
  0.0000029501788106  0.7499990605757034  0.4189863159599980   F   F   F
  0.2499984326223199  0.7500015093827130  0.0557922949150012   F   F   F
  0.0833859432417299  0.9167659870613392  0.1774397657500018   F   F   F
  0.4166685715517602  0.5833907624479835  0.2974148803349976   F   F   F
  0.2499987635605834  0.7499824587600230  0.4189862851349986   F   F   F
  0.2499984376190483  0.5000015423780582  0.0557922949150012   F   F   F
  0.0833438175882293  0.6666478978484847  0.1774029677300035   F   F   F
  0.4166573849514634  0.8333117196947128  0.2974057226499980   F   F   F
  0.2499852700440428  0.5000133853515294  0.4189983992299986   F   F   F
  0.4999984376190483  0.5000015423780582  0.0557922949150012   F   F   F
  0.8332448136283261  0.6666166994485749  0.1774330602199967   F   F   F
  0.6666604237417246  0.8333128684686173  0.2974076279399966   F   F   F
  0.5000451069849063  0.5000665173419705  0.4189212752250029   F   F   F
  0.4999984326223199  0.7500015093827130  0.0557922949150012   F   F   F
  0.8333297300049907  0.9166719935227405  0.1774300015350008   F   F   F
  0.6666949918227090  0.5833347431267768  0.2974023822550009   F   F   F
  0.5000199572748301  0.7500374216614958  0.4190092969249974   F   F   F
  0.7499984106242152  0.7500015093827130  0.0557922949150012   F   F   F
  0.5833301548529164  0.9166645513249847  0.1774219655349967   F   F   F
  0.9166656077703621  0.5833285415540956  0.2973896180400004   F   F   F
  0.7500014615048514  0.7500071044205256  0.4189915904949970   F   F   F
  0.7499983926190481  0.5000015423780582  0.0557922949150012   F   F   F
  0.5833326650956394  0.6666593002862200  0.1774131453000010   F   F   F
  0.9166635061990291  0.8333363494999517  0.2973934257399975   F   F   F
  0.7499823123860949  0.4999790869307077  0.4190071950350003   F   F   F
  0.3799544244501192  0.4112847972035141  0.5670597455799964   T   T   T
  0.3720352983373445  0.3373055503563691  0.5723014425750002   T   T   T
 
  0.00000000E+00  0.00000000E+00  0.00000000E+00
  0.00000000E+00  0.00000000E+00  0.00000000E+00
  0.00000000E+00  0.00000000E+00  0.00000000E+00
  0.00000000E+00  0.00000000E+00  0.00000000E+00
  0.00000000E+00  0.00000000E+00  0.00000000E+00
  0.00000000E+00  0.00000000E+00  0.00000000E+00
  0.00000000E+00  0.00000000E+00  0.00000000E+00
  0.00000000E+00  0.00000000E+00  0.00000000E+00
  0.00000000E+00  0.00000000E+00  0.00000000E+00
  0.00000000E+00  0.00000000E+00  0.00000000E+00
  0.00000000E+00  0.00000000E+00  0.00000000E+00
  0.00000000E+00  0.00000000E+00  0.00000000E+00
  0.00000000E+00  0.00000000E+00  0.00000000E+00
  0.00000000E+00  0.00000000E+00  0.00000000E+00
  0.00000000E+00  0.00000000E+00  0.00000000E+00
  0.00000000E+00  0.00000000E+00  0.00000000E+00
  0.00000000E+00  0.00000000E+00  0.00000000E+00
  0.00000000E+00  0.00000000E+00  0.00000000E+00
  0.00000000E+00  0.00000000E+00  0.00000000E+00
  0.00000000E+00  0.00000000E+00  0.00000000E+00
  0.00000000E+00  0.00000000E+00  0.00000000E+00
  0.00000000E+00  0.00000000E+00  0.00000000E+00
  0.00000000E+00  0.00000000E+00  0.00000000E+00
  0.00000000E+00  0.00000000E+00  0.00000000E+00
  0.00000000E+00  0.00000000E+00  0.00000000E+00
  0.00000000E+00  0.00000000E+00  0.00000000E+00
  0.00000000E+00  0.00000000E+00  0.00000000E+00
  0.00000000E+00  0.00000000E+00  0.00000000E+00
  0.00000000E+00  0.00000000E+00  0.00000000E+00
  0.00000000E+00  0.00000000E+00  0.00000000E+00
  0.00000000E+00  0.00000000E+00  0.00000000E+00
  0.00000000E+00  0.00000000E+00  0.00000000E+00
  0.00000000E+00  0.00000000E+00  0.00000000E+00
  0.00000000E+00  0.00000000E+00  0.00000000E+00
  0.00000000E+00  0.00000000E+00  0.00000000E+00
  0.00000000E+00  0.00000000E+00  0.00000000E+00
  0.00000000E+00  0.00000000E+00  0.00000000E+00
  0.00000000E+00  0.00000000E+00  0.00000000E+00
  0.00000000E+00  0.00000000E+00  0.00000000E+00
  0.00000000E+00  0.00000000E+00  0.00000000E+00
  0.00000000E+00  0.00000000E+00  0.00000000E+00
  0.00000000E+00  0.00000000E+00  0.00000000E+00
  0.00000000E+00  0.00000000E+00  0.00000000E+00
  0.00000000E+00  0.00000000E+00  0.00000000E+00
  0.00000000E+00  0.00000000E+00  0.00000000E+00
  0.00000000E+00  0.00000000E+00  0.00000000E+00
  0.00000000E+00  0.00000000E+00  0.00000000E+00
  0.00000000E+00  0.00000000E+00  0.00000000E+00
  0.00000000E+00  0.00000000E+00  0.00000000E+00
  0.00000000E+00  0.00000000E+00  0.00000000E+00
  0.00000000E+00  0.00000000E+00  0.00000000E+00
  0.00000000E+00  0.00000000E+00  0.00000000E+00
  0.00000000E+00  0.00000000E+00  0.00000000E+00
  0.00000000E+00  0.00000000E+00  0.00000000E+00
  0.00000000E+00  0.00000000E+00  0.00000000E+00
  0.00000000E+00  0.00000000E+00  0.00000000E+00
  0.00000000E+00  0.00000000E+00  0.00000000E+00
  0.00000000E+00  0.00000000E+00  0.00000000E+00
  0.00000000E+00  0.00000000E+00  0.00000000E+00
  0.00000000E+00  0.00000000E+00  0.00000000E+00
  0.00000000E+00  0.00000000E+00  0.00000000E+00
  0.00000000E+00  0.00000000E+00  0.00000000E+00
  0.00000000E+00  0.00000000E+00  0.00000000E+00
  0.00000000E+00  0.00000000E+00  0.00000000E+00
  0.00000000E+00  0.00000000E+00  0.00000000E+00
  0.00000000E+00  0.00000000E+00  0.00000000E+00
