Pt111                                   
   1.00000000000000     
    11.2227001190000006    0.0000000000000000    0.0000000000000000
     5.6113500595000003    9.7191434021000003    0.0000000000000000
     0.0000000000000000    0.0000000000000000   22.0000000000000000
   Pt   H 
    80     1
Selective dynamics
Direct
  0.7848512825426042  0.8691879846195789  0.3268368916909097   F   F   F
  0.0349506374145534  0.8691916607254413  0.3267850276272739   F   F   F
  0.0349681439674825  0.6190949454763555  0.3267847429409088   F   F   F
  0.7862800733275606  0.8682302335694203  0.0225670580909068   F   F   F
  0.0364384289564441  0.8680609123410079  0.0226856172363625   F   F   F
  0.0364228412049528  0.6182202209612129  0.0226805842954576   F   F   F
  0.6189758229743774  0.2020979939626741  0.1260885187227245   F   F   F
  0.3693140330336320  0.9516241768386280  0.1260459576772703   F   F   F
  0.0348991446690832  0.3691566669882391  0.3266431598136350   F   F   F
  0.0361788601359905  0.3685782103622444  0.0227088107227260   F   F   F
  0.8688471424406217  0.2020294336510915  0.1260521634136396   F   F   F
  0.9519264616517802  0.5356547451985421  0.2264349890999995   F   F   F
  0.2848178583382008  0.1192334926604346  0.3266745735590888   F   F   F
  0.5347055173495576  0.6189929133775394  0.3278042395045446   F   F   F
  0.2851882777351094  0.3694612374814952  0.3271057028590931   F   F   F
  0.2866648073237528  0.1180272390622576  0.0227513006863660   F   F   F
  0.5363674575391997  0.6181341683673409  0.0228022684454530   F   F   F
  0.2863915428592563  0.3682318987521782  0.0227333503590899   F   F   F
  0.6191969660038978  0.9518451945982349  0.1259728282363639   F   F   F
  0.7019676186415253  0.7854835994549134  0.2263984765090896   F   F   F
  0.8691370781147967  0.7019650235766548  0.1259463243499965   F   F   F
  0.6188595638565459  0.4520258954560461  0.1262610686227248   F   F   F
  0.2851342192016375  0.8686503586392007  0.3270892949409117   F   F   F
  0.2863455172172493  0.8681294905142494  0.0227238204590918   F   F   F
  0.6190272711773517  0.7018223024290577  0.1260977723045471   F   F   F
  0.2018501195410209  0.0358712550763158  0.2261802919136358   F   F   F
  0.8678440763085575  0.9527212633059108  0.4303327414590896   F   F   F
  0.1171889249124831  0.4526575754864766  0.4301433670136348   F   F   F
  0.1171533588976033  0.9535140878976662  0.4301592636681804   F   F   F
  0.8685144250079091  0.4527039889286257  0.4301820465318187   F   F   F
  0.3677487957105399  0.9534542607013847  0.4301873755545458   F   F   F
  0.8685138209245622  0.2021242416050342  0.4301681274954561   F   F   F
  0.1177377645648292  0.2027917040892859  0.4300456217545445   F   F   F
  0.6177142935931386  0.9527792416252581  0.4303161291500004   F   F   F
  0.8678788307934511  0.7027053112648076  0.4303103907727248   F   F   F
  0.3676862417262186  0.2021706912232020  0.4301855044136360   F   F   F
  0.3652405490040067  0.7078809573293725  0.4320135285772722   F   F   F
  0.6228507518742745  0.4502418513605306  0.4320157276590919   F   F   F
  0.1146949529605905  0.7043068985813079  0.4301267780454552   F   F   F
  0.6193363181516531  0.1995481535112376  0.4302009830363644   F   F   F
  0.5347457610635189  0.3694896187892525  0.3278107644818178   F   F   F
  0.5362999606144143  0.3683330369656375  0.0228043355863647   F   F   F
  0.5348710020279412  0.1191844079232069  0.3268065908454574   F   F   F
  0.5364073131440890  0.1182011611488107  0.0226946124863616   F   F   F
  0.8688488054922701  0.4520924555604964  0.1260435934818176   F   F   F
  0.1192131737047646  0.4520863784611535  0.1260449225227305   F   F   F
  0.0349275983362887  0.1191551583496349  0.3266343460409118   F   F   F
  0.0361642110898828  0.1179866292385654  0.0227279019045454   F   F   F
  0.1192202285978823  0.9516317002691395  0.1260554316500020   F   F   F
  0.3653367369148270  0.4502042949849425  0.4320125503045489   F   F   F
  0.4519465321421094  0.5356010571749792  0.2270543000045464   F   F   F
  0.6193725744772181  0.7043786913485377  0.4301577235636387   F   F   F
  0.3693131359176434  0.2019887131386326  0.1260565912681813   F   F   F
  0.1190331488273983  0.2019819612164397  0.1254658026454578   F   F   F
  0.9520467657644645  0.7855306249160208  0.2263938486409103   F   F   F
  0.7848561920548391  0.6191523748275785  0.3268034925727292   F   F   F
  0.2852412280456065  0.6190271429578900  0.3277899721500006   F   F   F
  0.7863014759496849  0.6182215288131019  0.0226957846454567   F   F   F
  0.2864847936510202  0.6181217200892348  0.0228290513000005   F   F   F
  0.3692583949727037  0.7016854194708628  0.1262318620090923   F   F   F
  0.3692569353821398  0.4519788326254002  0.1262555462454529   F   F   F
  0.2018589480643200  0.2854184876108121  0.2261930321227297   F   F   F
  0.7842802673884535  0.3694678985211937  0.3271212691863639   F   F   F
  0.7862188177271321  0.3682346507745464  0.0227349294409080   F   F   F
  0.9519241633565159  0.0355358100823366  0.2264282561227304   F   F   F
  0.4518648845059730  0.7854948349409554  0.2266143699409113   F   F   F
  0.7018910973325916  0.5354562929563897  0.2266301948227252   F   F   F
  0.2022117762948099  0.7854295400714619  0.2266135330272760   F   F   F
  0.4520153242166813  0.0355863943447190  0.2264430687500010   F   F   F
  0.1192959244383616  0.7018047129571343  0.1261048279454542   F   F   F
  0.7019573644268107  0.0356599285720094  0.2263975340500011   F   F   F
  0.7848734409353995  0.1192295841678401  0.3268179153545461   F   F   F
  0.5348196824013272  0.8692031669657894  0.3267804664272731   F   F   F
  0.7862871364304951  0.1182238332805881  0.0227171700954543   F   F   F
  0.5363985297358056  0.8681113131510116  0.0226914235318176   F   F   F
  0.2021965239351431  0.5354402560904248  0.2266306551181785   F   F   F
  0.9522067180012073  0.2854531589173348  0.2262034807545490   F   F   F
  0.8691293525423447  0.9518478548944032  0.1259481550272739   F   F   F
  0.7018981551096743  0.2857277772236557  0.2266223432181818   F   F   F
  0.4518882993117259  0.2857822085123090  0.2266352634272693   F   F   F
  0.4510165440443360  0.5361799856326854  0.4690288958954548   T   T   T
 
  0.00000000E+00  0.00000000E+00  0.00000000E+00
  0.00000000E+00  0.00000000E+00  0.00000000E+00
  0.00000000E+00  0.00000000E+00  0.00000000E+00
  0.00000000E+00  0.00000000E+00  0.00000000E+00
  0.00000000E+00  0.00000000E+00  0.00000000E+00
  0.00000000E+00  0.00000000E+00  0.00000000E+00
  0.00000000E+00  0.00000000E+00  0.00000000E+00
  0.00000000E+00  0.00000000E+00  0.00000000E+00
  0.00000000E+00  0.00000000E+00  0.00000000E+00
  0.00000000E+00  0.00000000E+00  0.00000000E+00
  0.00000000E+00  0.00000000E+00  0.00000000E+00
  0.00000000E+00  0.00000000E+00  0.00000000E+00
  0.00000000E+00  0.00000000E+00  0.00000000E+00
  0.00000000E+00  0.00000000E+00  0.00000000E+00
  0.00000000E+00  0.00000000E+00  0.00000000E+00
  0.00000000E+00  0.00000000E+00  0.00000000E+00
  0.00000000E+00  0.00000000E+00  0.00000000E+00
  0.00000000E+00  0.00000000E+00  0.00000000E+00
  0.00000000E+00  0.00000000E+00  0.00000000E+00
  0.00000000E+00  0.00000000E+00  0.00000000E+00
  0.00000000E+00  0.00000000E+00  0.00000000E+00
  0.00000000E+00  0.00000000E+00  0.00000000E+00
  0.00000000E+00  0.00000000E+00  0.00000000E+00
  0.00000000E+00  0.00000000E+00  0.00000000E+00
  0.00000000E+00  0.00000000E+00  0.00000000E+00
  0.00000000E+00  0.00000000E+00  0.00000000E+00
  0.00000000E+00  0.00000000E+00  0.00000000E+00
  0.00000000E+00  0.00000000E+00  0.00000000E+00
  0.00000000E+00  0.00000000E+00  0.00000000E+00
  0.00000000E+00  0.00000000E+00  0.00000000E+00
  0.00000000E+00  0.00000000E+00  0.00000000E+00
  0.00000000E+00  0.00000000E+00  0.00000000E+00
  0.00000000E+00  0.00000000E+00  0.00000000E+00
  0.00000000E+00  0.00000000E+00  0.00000000E+00
  0.00000000E+00  0.00000000E+00  0.00000000E+00
  0.00000000E+00  0.00000000E+00  0.00000000E+00
  0.00000000E+00  0.00000000E+00  0.00000000E+00
  0.00000000E+00  0.00000000E+00  0.00000000E+00
  0.00000000E+00  0.00000000E+00  0.00000000E+00
  0.00000000E+00  0.00000000E+00  0.00000000E+00
  0.00000000E+00  0.00000000E+00  0.00000000E+00
  0.00000000E+00  0.00000000E+00  0.00000000E+00
  0.00000000E+00  0.00000000E+00  0.00000000E+00
  0.00000000E+00  0.00000000E+00  0.00000000E+00
  0.00000000E+00  0.00000000E+00  0.00000000E+00
  0.00000000E+00  0.00000000E+00  0.00000000E+00
  0.00000000E+00  0.00000000E+00  0.00000000E+00
  0.00000000E+00  0.00000000E+00  0.00000000E+00
  0.00000000E+00  0.00000000E+00  0.00000000E+00
  0.00000000E+00  0.00000000E+00  0.00000000E+00
  0.00000000E+00  0.00000000E+00  0.00000000E+00
  0.00000000E+00  0.00000000E+00  0.00000000E+00
  0.00000000E+00  0.00000000E+00  0.00000000E+00
  0.00000000E+00  0.00000000E+00  0.00000000E+00
  0.00000000E+00  0.00000000E+00  0.00000000E+00
  0.00000000E+00  0.00000000E+00  0.00000000E+00
  0.00000000E+00  0.00000000E+00  0.00000000E+00
  0.00000000E+00  0.00000000E+00  0.00000000E+00
  0.00000000E+00  0.00000000E+00  0.00000000E+00
  0.00000000E+00  0.00000000E+00  0.00000000E+00
  0.00000000E+00  0.00000000E+00  0.00000000E+00
  0.00000000E+00  0.00000000E+00  0.00000000E+00
  0.00000000E+00  0.00000000E+00  0.00000000E+00
  0.00000000E+00  0.00000000E+00  0.00000000E+00
  0.00000000E+00  0.00000000E+00  0.00000000E+00
  0.00000000E+00  0.00000000E+00  0.00000000E+00
  0.00000000E+00  0.00000000E+00  0.00000000E+00
  0.00000000E+00  0.00000000E+00  0.00000000E+00
  0.00000000E+00  0.00000000E+00  0.00000000E+00
  0.00000000E+00  0.00000000E+00  0.00000000E+00
  0.00000000E+00  0.00000000E+00  0.00000000E+00
  0.00000000E+00  0.00000000E+00  0.00000000E+00
  0.00000000E+00  0.00000000E+00  0.00000000E+00
  0.00000000E+00  0.00000000E+00  0.00000000E+00
  0.00000000E+00  0.00000000E+00  0.00000000E+00
  0.00000000E+00  0.00000000E+00  0.00000000E+00
  0.00000000E+00  0.00000000E+00  0.00000000E+00
  0.00000000E+00  0.00000000E+00  0.00000000E+00
  0.00000000E+00  0.00000000E+00  0.00000000E+00
  0.00000000E+00  0.00000000E+00  0.00000000E+00
  0.00000000E+00  0.00000000E+00  0.00000000E+00
