Pt   H                                  
   1.00000000000000     
    11.2227001190000006    0.0000000000000000    0.0000000000000000
     5.6113500595000003    9.7191434021000003    0.0000000000000000
     0.0000000000000000    0.0000000000000000   22.0000000000000000
   Pt   H 
    80     2
Direct
  0.7851167553306228  0.8690828403477314  0.3270582872400403
  0.0353438493834447  0.8688463958794238  0.3273128216930904
  0.0356948922982435  0.6187646621329342  0.3269407254251526
  0.7856365540905199  0.8685378592049074  0.0231236129703498
  0.0360927213187229  0.8684140437518943  0.0232253289546549
  0.0357971416726180  0.6185635658563483  0.0229993322423998
  0.6187727747994147  0.2022380068071475  0.1265047186391519
  0.3687070266164260  0.9516354910478420  0.1266971997406316
  0.0343268363544275  0.3690148735947435  0.3270684255461845
  0.0354936947868131  0.3689317685585812  0.0233292854835896
  0.8686418435575146  0.2021594514058719  0.1267445895878485
  0.9520378568190228  0.5353091099840301  0.2267543580296459
  0.2850392736846576  0.1182632075723553  0.3271232327876468
  0.5349366243470400  0.6187668746334426  0.3291625714214715
  0.2857541391885482  0.3696006725698663  0.3270603569762979
  0.2862069101497860  0.1182074928891883  0.0233666786673215
  0.5357814840253625  0.6185043595784747  0.0233081015470065
  0.2856872662970120  0.3685593845896647  0.0231206576616939
  0.6186215175264879  0.9521129596577336  0.1263763102489487
  0.7018336956570669  0.7853495558421422  0.2267956644406637
  0.8689360471533131  0.7018717915274936  0.1263477501639763
  0.6186388792526777  0.4521453860296714  0.1268360683944149
  0.2872219129201937  0.8652458589874493  0.3292612069231459
  0.2855851857122747  0.8688224213425245  0.0232453772309293
  0.6186757456445682  0.7019072609004730  0.1266020194655445
  0.2017702407156407  0.0350054064156838  0.2271788900431762
  0.8685882924121833  0.9528500879918962  0.4305901573793852
  0.1182997195748856  0.4525365291600614  0.4302536656503380
  0.1183331560477247  0.9524423215861767  0.4308945990910843
  0.8706019680147205  0.4517931936856010  0.4307043617384639
  0.3674878310106938  0.9549539122572320  0.4307442143324398
  0.8679792138492459  0.2027299101491523  0.4309268389101633
  0.1179496779569197  0.2024276669549497  0.4305046189595071
  0.6184244089699056  0.9530726625071793  0.4304108465077975
  0.8688411581402546  0.7026882829190358  0.4303866187184199
  0.3682855906272326  0.2025677688024156  0.4302875740692868
  0.3678084315450726  0.7042968221900117  0.4384890120864662
  0.6189331725380759  0.4532935652642354  0.4392040764291122
  0.1165553137690635  0.7035756900020048  0.4306443961767954
  0.6192703298491168  0.2008685025162546  0.4306790991452070
  0.5351994407351809  0.3701828037482516  0.3289314414240826
  0.5357301195514231  0.3687762870238027  0.0232199388300306
  0.5349310044717305  0.1195358729234451  0.3269660716615482
  0.5358528709522138  0.1185062254928149  0.0230099042711727
  0.8685026746101822  0.4518699589296801  0.1266862079239318
  0.1189773363505182  0.4518864308023429  0.1263260382768957
  0.0347954796039643  0.1187996384777491  0.3273576274346368
  0.0356582577128168  0.1183967234661737  0.0232548669186146
  0.1188972433654430  0.9518505678150374  0.1267362917126794
  0.3660140369374105  0.4503628975426897  0.4323741834303486
  0.4519497307813488  0.5354960050556061  0.2278093433011530
  0.6208279401986038  0.7053290883729382  0.4322379076734107
  0.3687079468354194  0.2022238224524978  0.1263112970962575
  0.1186214165053312  0.2018476772847540  0.1262121516602839
  0.9520668757109106  0.7854416552704879  0.2267492288346312
  0.7846325583782900  0.6191933293920099  0.3274314008278805
  0.2862731043044300  0.6190108164565887  0.3288647269919719
  0.7856839667649845  0.6184116676025301  0.0231853852651865
  0.2859896215549298  0.6185215726059330  0.0232371314559122
  0.3689640094945836  0.7018383447190161  0.1268240067658705
  0.3691098555572562  0.4522738052078273  0.1265853952714839
  0.2015759244086806  0.2850652407572554  0.2268944346142452
  0.7811092048626490  0.3712382857360588  0.3293947452357211
  0.7859241246732861  0.3684769639128033  0.0232424503616773
  0.9517676987057555  0.0353873544012272  0.2270304001460085
  0.4516508871902558  0.7855242525487590  0.2273227145216579
  0.7020414293713126  0.5351740966749463  0.2273329009444080
  0.2025653589100025  0.7851444192610821  0.2274830297291969
  0.4516675824545079  0.0356674979931171  0.2267799811758432
  0.1190051577810890  0.7020060598893826  0.1264899187033573
  0.7018699281905284  0.0356384070753141  0.2267457528005674
  0.7849282178715045  0.1192182715516041  0.3273434514930786
  0.5353058998080960  0.8685143140964030  0.3274338091101188
  0.7855899746866768  0.1189530428641032  0.0232630975139989
  0.5356601524450607  0.8684557146986275  0.0231824195283649
  0.2021516499020709  0.5354374818798308  0.2266754380067124
  0.9514175298854562  0.2853613741003302  0.2271736031063288
  0.8688566289731953  0.9520048910009907  0.1263627185179206
  0.7016300617213288  0.2861159900465557  0.2275161990565661
  0.4519065723028131  0.2856917312432727  0.2266721626519957
  0.4607679904182903  0.5427356959931434  0.4889132945384966
  0.5281621114552512  0.6093981855400652  0.4892994246180844
 
  0.00000000E+00  0.00000000E+00  0.00000000E+00
  0.00000000E+00  0.00000000E+00  0.00000000E+00
  0.00000000E+00  0.00000000E+00  0.00000000E+00
  0.00000000E+00  0.00000000E+00  0.00000000E+00
  0.00000000E+00  0.00000000E+00  0.00000000E+00
  0.00000000E+00  0.00000000E+00  0.00000000E+00
  0.00000000E+00  0.00000000E+00  0.00000000E+00
  0.00000000E+00  0.00000000E+00  0.00000000E+00
  0.00000000E+00  0.00000000E+00  0.00000000E+00
  0.00000000E+00  0.00000000E+00  0.00000000E+00
  0.00000000E+00  0.00000000E+00  0.00000000E+00
  0.00000000E+00  0.00000000E+00  0.00000000E+00
  0.00000000E+00  0.00000000E+00  0.00000000E+00
  0.00000000E+00  0.00000000E+00  0.00000000E+00
  0.00000000E+00  0.00000000E+00  0.00000000E+00
  0.00000000E+00  0.00000000E+00  0.00000000E+00
  0.00000000E+00  0.00000000E+00  0.00000000E+00
  0.00000000E+00  0.00000000E+00  0.00000000E+00
  0.00000000E+00  0.00000000E+00  0.00000000E+00
  0.00000000E+00  0.00000000E+00  0.00000000E+00
  0.00000000E+00  0.00000000E+00  0.00000000E+00
  0.00000000E+00  0.00000000E+00  0.00000000E+00
  0.00000000E+00  0.00000000E+00  0.00000000E+00
  0.00000000E+00  0.00000000E+00  0.00000000E+00
  0.00000000E+00  0.00000000E+00  0.00000000E+00
  0.00000000E+00  0.00000000E+00  0.00000000E+00
  0.00000000E+00  0.00000000E+00  0.00000000E+00
  0.00000000E+00  0.00000000E+00  0.00000000E+00
  0.00000000E+00  0.00000000E+00  0.00000000E+00
  0.00000000E+00  0.00000000E+00  0.00000000E+00
  0.00000000E+00  0.00000000E+00  0.00000000E+00
  0.00000000E+00  0.00000000E+00  0.00000000E+00
  0.00000000E+00  0.00000000E+00  0.00000000E+00
  0.00000000E+00  0.00000000E+00  0.00000000E+00
  0.00000000E+00  0.00000000E+00  0.00000000E+00
  0.00000000E+00  0.00000000E+00  0.00000000E+00
  0.00000000E+00  0.00000000E+00  0.00000000E+00
  0.00000000E+00  0.00000000E+00  0.00000000E+00
  0.00000000E+00  0.00000000E+00  0.00000000E+00
  0.00000000E+00  0.00000000E+00  0.00000000E+00
  0.00000000E+00  0.00000000E+00  0.00000000E+00
  0.00000000E+00  0.00000000E+00  0.00000000E+00
  0.00000000E+00  0.00000000E+00  0.00000000E+00
  0.00000000E+00  0.00000000E+00  0.00000000E+00
  0.00000000E+00  0.00000000E+00  0.00000000E+00
  0.00000000E+00  0.00000000E+00  0.00000000E+00
  0.00000000E+00  0.00000000E+00  0.00000000E+00
  0.00000000E+00  0.00000000E+00  0.00000000E+00
  0.00000000E+00  0.00000000E+00  0.00000000E+00
  0.00000000E+00  0.00000000E+00  0.00000000E+00
  0.00000000E+00  0.00000000E+00  0.00000000E+00
  0.00000000E+00  0.00000000E+00  0.00000000E+00
  0.00000000E+00  0.00000000E+00  0.00000000E+00
  0.00000000E+00  0.00000000E+00  0.00000000E+00
  0.00000000E+00  0.00000000E+00  0.00000000E+00
  0.00000000E+00  0.00000000E+00  0.00000000E+00
  0.00000000E+00  0.00000000E+00  0.00000000E+00
  0.00000000E+00  0.00000000E+00  0.00000000E+00
  0.00000000E+00  0.00000000E+00  0.00000000E+00
  0.00000000E+00  0.00000000E+00  0.00000000E+00
  0.00000000E+00  0.00000000E+00  0.00000000E+00
  0.00000000E+00  0.00000000E+00  0.00000000E+00
  0.00000000E+00  0.00000000E+00  0.00000000E+00
  0.00000000E+00  0.00000000E+00  0.00000000E+00
  0.00000000E+00  0.00000000E+00  0.00000000E+00
  0.00000000E+00  0.00000000E+00  0.00000000E+00
  0.00000000E+00  0.00000000E+00  0.00000000E+00
  0.00000000E+00  0.00000000E+00  0.00000000E+00
  0.00000000E+00  0.00000000E+00  0.00000000E+00
  0.00000000E+00  0.00000000E+00  0.00000000E+00
  0.00000000E+00  0.00000000E+00  0.00000000E+00
  0.00000000E+00  0.00000000E+00  0.00000000E+00
  0.00000000E+00  0.00000000E+00  0.00000000E+00
  0.00000000E+00  0.00000000E+00  0.00000000E+00
  0.00000000E+00  0.00000000E+00  0.00000000E+00
  0.00000000E+00  0.00000000E+00  0.00000000E+00
  0.00000000E+00  0.00000000E+00  0.00000000E+00
  0.00000000E+00  0.00000000E+00  0.00000000E+00
  0.00000000E+00  0.00000000E+00  0.00000000E+00
  0.00000000E+00  0.00000000E+00  0.00000000E+00
  0.00000000E+00  0.00000000E+00  0.00000000E+00
  0.00000000E+00  0.00000000E+00  0.00000000E+00
