Pt   H                                  
   1.00000000000000     
    10.5600004195999997    0.0000000000000000    0.0000000000000000
    -5.2800002097999998    9.1452286273999999    0.0000000000000000
     0.0000000000000000    0.0000000000000000   20.0000000000000000
   Pt   H 
    64     2
Selective dynamics
Direct
  0.9999984446215961  0.0000015553793773  0.0557922949150012   F   F   F
  0.3333317286582087  0.1666682603465262  0.1775239735950009   F   F   F
  0.1678268435490011  0.3329492552736397  0.2993813045000024   F   F   F
  0.0003719516642349  0.0005956689025410  0.4184218940600033   F   F   F
  0.9999984416169312  0.2500015483757210  0.0557922949150012   F   F   F
  0.3333317206590891  0.4166682673501754  0.1775239735950009   F   F   F
  0.1683426976311679  0.0861480427552763  0.2999564887949973   F   F   F
  0.9998534864862805  0.2496567913741856  0.4177785216850012   F   F   F
  0.2499984416169312  0.2500015483757210  0.0557922949150012   F   F   F
  0.0833317206590891  0.4166682673501754  0.1775239735950009   F   F   F
  0.4164020683515091  0.0837212875472630  0.2965747917049981   F   F   F
  0.2489276652307382  0.2488769665288402  0.4346272585150004   F   F   F
  0.2499984446215961  0.0000015553793773  0.0557922949150012   F   F   F
  0.0833317236582047  0.1666682603465262  0.1775239735950009   F   F   F
  0.4157214894277885  0.3343993472987066  0.3002094787299967   F   F   F
  0.2499239413058305  0.9998485991267785  0.4189993933700009   F   F   F
  0.4999984446215961  0.0000015553793773  0.0557922949150012   F   F   F
  0.8333316836582085  0.1666682603465262  0.1775239735950009   F   F   F
  0.6664530991964028  0.3337765602332254  0.2965897684600023   F   F   F
  0.5000652049144279  0.9998716805398971  0.4193819106450007   F   F   F
  0.4999984296188273  0.2500015483757210  0.0557922949150012   F   F   F
  0.8333316756590889  0.4166682673501754  0.1775239735950009   F   F   F
  0.6665890190398827  0.0836554072369324  0.2977667162199964   F   F   F
  0.5004224904242278  0.2497875496688877  0.4158007464699978   F   F   F
  0.7499984076207227  0.2500015483757210  0.0557922949150012   F   F   F
  0.5833316756590889  0.4166682673501754  0.1775239735950009   F   F   F
  0.9169180423822141  0.0834731148451411  0.2971175882500035   F   F   F
  0.7502633599432684  0.2500520905019883  0.4194593534050028   F   F   F
  0.7499984216197078  0.0000015553793773  0.0557922949150012   F   F   F
  0.5833316616506323  0.1666682603465262  0.1775239735950009   F   F   F
  0.9171053775156608  0.3335756590338264  0.2970331686899996   F   F   F
  0.7500224807517526  0.0002000003799267  0.4191221549500028   F   F   F
  0.9999984376190483  0.5000015423780582  0.0557922949150012   F   F   F
  0.3333317066506325  0.6666682603465262  0.1775239735950009   F   F   F
  0.1670398346913657  0.8341658242467389  0.2967227443900029   F   F   F
  0.0000290173207844  0.5001670857736045  0.4184860011949993   F   F   F
  0.9999984326223199  0.7500015093827130  0.0557922949150012   F   F   F
  0.3333317276521655  0.9166682803514945  0.1775239735950009   F   F   F
  0.1671949026020627  0.5830475704373868  0.2966219216500008   F   F   F
  0.9999620310046566  0.7502545115321695  0.4156552450799964   F   F   F
  0.2499984326223199  0.7500015093827130  0.0557922949150012   F   F   F
  0.0833317276521655  0.9166682803514945  0.1775239735950009   F   F   F
  0.4172373997906504  0.5824067900327918  0.2992572363099981   F   F   F
  0.2500121766251411  0.7501532672508375  0.4186583239600026   F   F   F
  0.2499984376190483  0.5000015423780582  0.0557922949150012   F   F   F
  0.0833317066506325  0.6666682603465262  0.1775239735950009   F   F   F
  0.4166418015616244  0.8331273102317311  0.2970398064699964   F   F   F
  0.2497537397634133  0.5003527303833977  0.4185856623450022   F   F   F
  0.4999984376190483  0.5000015423780582  0.0557922949150012   F   F   F
  0.8333317066506325  0.6666682603465262  0.1775239735950009   F   F   F
  0.6668158802431563  0.8333377781684490  0.2971601769200021   F   F   F
  0.5012466024754119  0.5014035400888233  0.4333209984500002   F   F   F
  0.4999984326223199  0.7500015093827130  0.0557922949150012   F   F   F
  0.8333317046597415  0.9166682803514945  0.1775239735950009   F   F   F
  0.6640726030912560  0.5819092031068180  0.3000001542899966   F   F   F
  0.5005469455679687  0.7503962416466123  0.4177446091600032   F   F   F
  0.7499984106242152  0.7500015093827130  0.0557922949150012   F   F   F
  0.5833316826521724  0.9166682803514945  0.1775239735950009   F   F   F
  0.9159567578549215  0.5831136393269247  0.2967144033749989   F   F   F
  0.7498702838258637  0.7500271842028354  0.4186853810999978   F   F   F
  0.7499983926190481  0.5000015423780582  0.0557922949150012   F   F   F
  0.5833316616506323  0.6666682603465262  0.1775239735950009   F   F   F
  0.9164377297089459  0.8337615946478323  0.2959427434499986   F   F   F
  0.7504103583880593  0.5002635375558313  0.4190752116600009   F   F   F
  0.3543945143401785  0.3996864607352322  0.5146462208499969   T   T   T
  0.3964688704908781  0.3495930188252671  0.5144960251949975   T   T   T
 
  0.00000000E+00  0.00000000E+00  0.00000000E+00
  0.00000000E+00  0.00000000E+00  0.00000000E+00
  0.00000000E+00  0.00000000E+00  0.00000000E+00
  0.00000000E+00  0.00000000E+00  0.00000000E+00
  0.00000000E+00  0.00000000E+00  0.00000000E+00
  0.00000000E+00  0.00000000E+00  0.00000000E+00
  0.00000000E+00  0.00000000E+00  0.00000000E+00
  0.00000000E+00  0.00000000E+00  0.00000000E+00
  0.00000000E+00  0.00000000E+00  0.00000000E+00
  0.00000000E+00  0.00000000E+00  0.00000000E+00
  0.00000000E+00  0.00000000E+00  0.00000000E+00
  0.00000000E+00  0.00000000E+00  0.00000000E+00
  0.00000000E+00  0.00000000E+00  0.00000000E+00
  0.00000000E+00  0.00000000E+00  0.00000000E+00
  0.00000000E+00  0.00000000E+00  0.00000000E+00
  0.00000000E+00  0.00000000E+00  0.00000000E+00
  0.00000000E+00  0.00000000E+00  0.00000000E+00
  0.00000000E+00  0.00000000E+00  0.00000000E+00
  0.00000000E+00  0.00000000E+00  0.00000000E+00
  0.00000000E+00  0.00000000E+00  0.00000000E+00
  0.00000000E+00  0.00000000E+00  0.00000000E+00
  0.00000000E+00  0.00000000E+00  0.00000000E+00
  0.00000000E+00  0.00000000E+00  0.00000000E+00
  0.00000000E+00  0.00000000E+00  0.00000000E+00
  0.00000000E+00  0.00000000E+00  0.00000000E+00
  0.00000000E+00  0.00000000E+00  0.00000000E+00
  0.00000000E+00  0.00000000E+00  0.00000000E+00
  0.00000000E+00  0.00000000E+00  0.00000000E+00
  0.00000000E+00  0.00000000E+00  0.00000000E+00
  0.00000000E+00  0.00000000E+00  0.00000000E+00
  0.00000000E+00  0.00000000E+00  0.00000000E+00
  0.00000000E+00  0.00000000E+00  0.00000000E+00
  0.00000000E+00  0.00000000E+00  0.00000000E+00
  0.00000000E+00  0.00000000E+00  0.00000000E+00
  0.00000000E+00  0.00000000E+00  0.00000000E+00
  0.00000000E+00  0.00000000E+00  0.00000000E+00
  0.00000000E+00  0.00000000E+00  0.00000000E+00
  0.00000000E+00  0.00000000E+00  0.00000000E+00
  0.00000000E+00  0.00000000E+00  0.00000000E+00
  0.00000000E+00  0.00000000E+00  0.00000000E+00
  0.00000000E+00  0.00000000E+00  0.00000000E+00
  0.00000000E+00  0.00000000E+00  0.00000000E+00
  0.00000000E+00  0.00000000E+00  0.00000000E+00
  0.00000000E+00  0.00000000E+00  0.00000000E+00
  0.00000000E+00  0.00000000E+00  0.00000000E+00
  0.00000000E+00  0.00000000E+00  0.00000000E+00
  0.00000000E+00  0.00000000E+00  0.00000000E+00
  0.00000000E+00  0.00000000E+00  0.00000000E+00
  0.00000000E+00  0.00000000E+00  0.00000000E+00
  0.00000000E+00  0.00000000E+00  0.00000000E+00
  0.00000000E+00  0.00000000E+00  0.00000000E+00
  0.00000000E+00  0.00000000E+00  0.00000000E+00
  0.00000000E+00  0.00000000E+00  0.00000000E+00
  0.00000000E+00  0.00000000E+00  0.00000000E+00
  0.00000000E+00  0.00000000E+00  0.00000000E+00
  0.00000000E+00  0.00000000E+00  0.00000000E+00
  0.00000000E+00  0.00000000E+00  0.00000000E+00
  0.00000000E+00  0.00000000E+00  0.00000000E+00
  0.00000000E+00  0.00000000E+00  0.00000000E+00
  0.00000000E+00  0.00000000E+00  0.00000000E+00
  0.00000000E+00  0.00000000E+00  0.00000000E+00
  0.00000000E+00  0.00000000E+00  0.00000000E+00
  0.00000000E+00  0.00000000E+00  0.00000000E+00
  0.00000000E+00  0.00000000E+00  0.00000000E+00
  0.00000000E+00  0.00000000E+00  0.00000000E+00
  0.00000000E+00  0.00000000E+00  0.00000000E+00
