Cu   Pt   H                             
   1.00000000000000     
    10.5600004195999997    0.0000000000000000    0.0000000000000000
     5.2800002097999998    9.1452286273999999    0.0000000000000000
     0.0000000000000000    0.0000000000000000   22.0000000000000000
   Cu   Pt   H 
    64    16     2
Selective dynamics
Direct
  0.7847383125719531  0.8687586832762193  0.3142136358500025   F   F   F
  0.0352898713388612  0.8690734960837787  0.3142744004136375   F   F   F
  0.0353699240056713  0.6190259462665253  0.3143569062454574   F   F   F
  0.7862489977741944  0.8683580306463838  0.0449029301409070   F   F   F
  0.0363259342032549  0.8683109594885678  0.0449037755136388   F   F   F
  0.0362926956164600  0.6183453800441185  0.0449040668727250   F   F   F
  0.6190059373410435  0.2020352778895287  0.1352781702363615   F   F   F
  0.3690287182127392  0.9520179664196391  0.1352793628454521   F   F   F
  0.0348542470471003  0.3694956615601512  0.3141985412318178   F   F   F
  0.0363223169521234  0.3683400816035913  0.0449042535590891   F   F   F
  0.8690354394784165  0.2020170446548164  0.1352869309954556   F   F   F
  0.9521795585304673  0.5356112292069142  0.2248157388272745   F   F   F
  0.2854863043704228  0.1187744783597395  0.3141767839772740   F   F   F
  0.5351314089125907  0.6184323423096245  0.3160921510090944   F   F   F
  0.2848809367157088  0.3688682045184777  0.3141935121681811   F   F   F
  0.2862743719031045  0.1183406332300407  0.0449050022409097   F   F   F
  0.5363161573872759  0.6183452978263801  0.0448859087045435   F   F   F
  0.2863548261650166  0.3683290234218717  0.0448970020954533   F   F   F
  0.6190115951470077  0.9519934922693309  0.1352729054090887   F   F   F
  0.7019098654439162  0.7853328223727374  0.2248489106181850   F   F   F
  0.8690562341340424  0.7019773347563785  0.1352801621909094   F   F   F
  0.6190154306749704  0.4520216268748740  0.1352790409500031   F   F   F
  0.2874016971630482  0.8656017638184039  0.3157246094181829   F   F   F
  0.2863313801676881  0.8683468335616311  0.0448881439999980   F   F   F
  0.6190297104958304  0.7020185649120592  0.1352794445545484   F   F   F
  0.2025102370086174  0.0343495314221940  0.2252938665999977   F   F   F
  0.5358279613763770  0.3703135997992888  0.3157086616499996   F   F   F
  0.5362909971988969  0.3683687437629146  0.0448882480863659   F   F   F
  0.5351587404601119  0.1191978625153212  0.3143391624045435   F   F   F
  0.5363149216246015  0.1183187474021210  0.0448927739090905   F   F   F
  0.8690821575080889  0.4519764673149709  0.1352776201363639   F   F   F
  0.1190566022182153  0.4520153678952070  0.1352898458409086   F   F   F
  0.0349743222855281  0.1189130977919746  0.3142293092818207   F   F   F
  0.0362816687696892  0.1183447565605249  0.0449075346136354   F   F   F
  0.1190601259472075  0.9519896514796216  0.1352788457909071   F   F   F
  0.4522568823029118  0.5355073926448455  0.2255576892409081   F   F   F
  0.3690244471336612  0.2020149772051383  0.1352856928499975   F   F   F
  0.1190303050251416  0.2020411246214309  0.1352914691636329   F   F   F
  0.9522148894842744  0.7854565075583224  0.2248744914454548   F   F   F
  0.7859052048447239  0.6183305134939729  0.3143908642863664   F   F   F
  0.2860694447033012  0.6195070619367016  0.3153645832590897   F   F   F
  0.7862585535986497  0.6183514669231087  0.0448983113227257   F   F   F
  0.2863148512113511  0.6183444775079039  0.0448935090136331   F   F   F
  0.3690604108637601  0.7020085334733963  0.1352746690909115   F   F   F
  0.3690289842654053  0.4520183087839627  0.1352848660681829   F   F   F
  0.2019171661533221  0.2853805033567554  0.2248070674363660   F   F   F
  0.7806469702014596  0.3719779568886636  0.3161623381818188   F   F   F
  0.7862455880820818  0.3683649368487991  0.0448978039272703   F   F   F
  0.9521500327704686  0.0356114121875777  0.2247944492954517   F   F   F
  0.4519579490914936  0.7856026241350023  0.2252327017500022   F   F   F
  0.7022338037669371  0.5352795041595044  0.2252613194318158   F   F   F
  0.2023847336183664  0.7855222326073630  0.2251903083090880   F   F   F
  0.4521480652103094  0.0356649557150277  0.2247926009863619   F   F   F
  0.1190753377591065  0.7019761661032575  0.1352883550727242   F   F   F
  0.7020089329238530  0.0356602389165985  0.2248483877500007   F   F   F
  0.7851160375314734  0.1192474672565993  0.3142433014318158   F   F   F
  0.5343823348330048  0.8699266957814515  0.3143582541727241   F   F   F
  0.7863001972648362  0.1183328961790693  0.0449101627227293   F   F   F
  0.5362660313703174  0.8683264854426795  0.0448757432500031   F   F   F
  0.2024985878077601  0.5358733977756529  0.2251046923636366   F   F   F
  0.9506687948587071  0.2860784589530567  0.2254021218409079   F   F   F
  0.8690701809434032  0.9519851025282833  0.1352848888045486   F   F   F
  0.7020234096742826  0.2859576633289151  0.2252842760727276   F   F   F
  0.4525179568688316  0.2859987494860050  0.2251717665818163   F   F   F
  0.8677046465117400  0.9530354530871818  0.4125509252818205   F   F   F
  0.1180183280050286  0.4530223887883125  0.4135258363045438   F   F   F
  0.1168922817104274  0.9543987608630644  0.4131528129500026   F   F   F
  0.8706046341367326  0.4522330615780135  0.4136475951863616   F   F   F
  0.3670225392166770  0.9557724574333619  0.4136369539909097   F   F   F
  0.8688020874824147  0.2024378167925960  0.4130345164045437   F   F   F
  0.1182771814916279  0.2036478319874959  0.4125109832727247   F   F   F
  0.6179904690172364  0.9535641749264059  0.4135263585909073   F   F   F
  0.8684608871677284  0.7032585666399527  0.4133877586090904   F   F   F
  0.3677604882700933  0.2031450662188803  0.4133498567500027   F   F   F
  0.3642012672268251  0.7068322177788744  0.4175466618181787   F   F   F
  0.6209329263344969  0.4502122789980518  0.4198729444636342   F   F   F
  0.1155300834087569  0.7041717085022583  0.4132407055136369   F   F   F
  0.6190264400740517  0.2006971907515691  0.4131745127045434   F   F   F
  0.3660339622774700  0.4513049287837632  0.4131385015500015   F   F   F
  0.6201565040219990  0.7054667358528590  0.4122956551727270   F   F   F
  0.4677417894606819  0.5548429668228607  0.4846509088409121   T   T   T
  0.5178072810932690  0.6033034401534251  0.4843949535409062   T   T   T
 
  0.00000000E+00  0.00000000E+00  0.00000000E+00
  0.00000000E+00  0.00000000E+00  0.00000000E+00
  0.00000000E+00  0.00000000E+00  0.00000000E+00
  0.00000000E+00  0.00000000E+00  0.00000000E+00
  0.00000000E+00  0.00000000E+00  0.00000000E+00
  0.00000000E+00  0.00000000E+00  0.00000000E+00
  0.00000000E+00  0.00000000E+00  0.00000000E+00
  0.00000000E+00  0.00000000E+00  0.00000000E+00
  0.00000000E+00  0.00000000E+00  0.00000000E+00
  0.00000000E+00  0.00000000E+00  0.00000000E+00
  0.00000000E+00  0.00000000E+00  0.00000000E+00
  0.00000000E+00  0.00000000E+00  0.00000000E+00
  0.00000000E+00  0.00000000E+00  0.00000000E+00
  0.00000000E+00  0.00000000E+00  0.00000000E+00
  0.00000000E+00  0.00000000E+00  0.00000000E+00
  0.00000000E+00  0.00000000E+00  0.00000000E+00
  0.00000000E+00  0.00000000E+00  0.00000000E+00
  0.00000000E+00  0.00000000E+00  0.00000000E+00
  0.00000000E+00  0.00000000E+00  0.00000000E+00
  0.00000000E+00  0.00000000E+00  0.00000000E+00
  0.00000000E+00  0.00000000E+00  0.00000000E+00
  0.00000000E+00  0.00000000E+00  0.00000000E+00
  0.00000000E+00  0.00000000E+00  0.00000000E+00
  0.00000000E+00  0.00000000E+00  0.00000000E+00
  0.00000000E+00  0.00000000E+00  0.00000000E+00
  0.00000000E+00  0.00000000E+00  0.00000000E+00
  0.00000000E+00  0.00000000E+00  0.00000000E+00
  0.00000000E+00  0.00000000E+00  0.00000000E+00
  0.00000000E+00  0.00000000E+00  0.00000000E+00
  0.00000000E+00  0.00000000E+00  0.00000000E+00
  0.00000000E+00  0.00000000E+00  0.00000000E+00
  0.00000000E+00  0.00000000E+00  0.00000000E+00
  0.00000000E+00  0.00000000E+00  0.00000000E+00
  0.00000000E+00  0.00000000E+00  0.00000000E+00
  0.00000000E+00  0.00000000E+00  0.00000000E+00
  0.00000000E+00  0.00000000E+00  0.00000000E+00
  0.00000000E+00  0.00000000E+00  0.00000000E+00
  0.00000000E+00  0.00000000E+00  0.00000000E+00
  0.00000000E+00  0.00000000E+00  0.00000000E+00
  0.00000000E+00  0.00000000E+00  0.00000000E+00
  0.00000000E+00  0.00000000E+00  0.00000000E+00
  0.00000000E+00  0.00000000E+00  0.00000000E+00
  0.00000000E+00  0.00000000E+00  0.00000000E+00
  0.00000000E+00  0.00000000E+00  0.00000000E+00
  0.00000000E+00  0.00000000E+00  0.00000000E+00
  0.00000000E+00  0.00000000E+00  0.00000000E+00
  0.00000000E+00  0.00000000E+00  0.00000000E+00
  0.00000000E+00  0.00000000E+00  0.00000000E+00
  0.00000000E+00  0.00000000E+00  0.00000000E+00
  0.00000000E+00  0.00000000E+00  0.00000000E+00
  0.00000000E+00  0.00000000E+00  0.00000000E+00
  0.00000000E+00  0.00000000E+00  0.00000000E+00
  0.00000000E+00  0.00000000E+00  0.00000000E+00
  0.00000000E+00  0.00000000E+00  0.00000000E+00
  0.00000000E+00  0.00000000E+00  0.00000000E+00
  0.00000000E+00  0.00000000E+00  0.00000000E+00
  0.00000000E+00  0.00000000E+00  0.00000000E+00
  0.00000000E+00  0.00000000E+00  0.00000000E+00
  0.00000000E+00  0.00000000E+00  0.00000000E+00
  0.00000000E+00  0.00000000E+00  0.00000000E+00
  0.00000000E+00  0.00000000E+00  0.00000000E+00
  0.00000000E+00  0.00000000E+00  0.00000000E+00
  0.00000000E+00  0.00000000E+00  0.00000000E+00
  0.00000000E+00  0.00000000E+00  0.00000000E+00
  0.00000000E+00  0.00000000E+00  0.00000000E+00
  0.00000000E+00  0.00000000E+00  0.00000000E+00
  0.00000000E+00  0.00000000E+00  0.00000000E+00
  0.00000000E+00  0.00000000E+00  0.00000000E+00
  0.00000000E+00  0.00000000E+00  0.00000000E+00
  0.00000000E+00  0.00000000E+00  0.00000000E+00
  0.00000000E+00  0.00000000E+00  0.00000000E+00
  0.00000000E+00  0.00000000E+00  0.00000000E+00
  0.00000000E+00  0.00000000E+00  0.00000000E+00
  0.00000000E+00  0.00000000E+00  0.00000000E+00
  0.00000000E+00  0.00000000E+00  0.00000000E+00
  0.00000000E+00  0.00000000E+00  0.00000000E+00
  0.00000000E+00  0.00000000E+00  0.00000000E+00
  0.00000000E+00  0.00000000E+00  0.00000000E+00
  0.00000000E+00  0.00000000E+00  0.00000000E+00
  0.00000000E+00  0.00000000E+00  0.00000000E+00
  0.00000000E+00  0.00000000E+00  0.00000000E+00
  0.00000000E+00  0.00000000E+00  0.00000000E+00
