Pt111                                   
   1.00000000000000     
    11.2227001190000006    0.0000000000000000    0.0000000000000000
     5.6113500595000003    9.7191434021000003    0.0000000000000000
     0.0000000000000000    0.0000000000000000   22.0000000000000000
   Pt   H 
    80     2
Selective dynamics
Direct
  0.7853741466791533  0.8688515027235226  0.3267578720409077   F   F   F
  0.0354098181526652  0.8688266663475162  0.3267723864545431   F   F   F
  0.0354609520192710  0.6187873803159007  0.3267649433772704   F   F   F
  0.7852357769343783  0.8688960058018438  0.0225349654590943   F   F   F
  0.0352969129240179  0.8689052838314240  0.0225283495863664   F   F   F
  0.0353106579129019  0.6188160019637650  0.0225227594590933   F   F   F
  0.6186373653348269  0.2021790198275539  0.1258261482818170   F   F   F
  0.3686830589630574  0.9521576472058726  0.1258305645954536   F   F   F
  0.0354170492048453  0.3688346326514207  0.3267738962681790   F   F   F
  0.0353081778435254  0.3688986196484478  0.0225097894363628   F   F   F
  0.8687019459000780  0.2021411936956810  0.1258251417499991   F   F   F
  0.9520331767723746  0.5354756259873170  0.2263052799227268   F   F   F
  0.2853778257425006  0.1188864250681121  0.3267891367181832   F   F   F
  0.5354267892367730  0.6188085913724137  0.3267002443727307   F   F   F
  0.2853122900437413  0.3688253459379425  0.3267151165909112   F   F   F
  0.2852365125791607  0.1188647394944695  0.0225209317500017   F   F   F
  0.5353231924183248  0.6188424160714021  0.0225125596181783   F   F   F
  0.2852232426100088  0.3688697975302375  0.0225233385727250   F   F   F
  0.6186987033063005  0.9521581827057375  0.1258578564409092   F   F   F
  0.7020738573644252  0.7854630212113705  0.2263104328818173   F   F   F
  0.8686766216147817  0.7021607313485561  0.1258386534909093   F   F   F
  0.6187180849359208  0.4521222348206706  0.1258424275636330   F   F   F
  0.2853515568813094  0.8688709431301689  0.3267373733272763   F   F   F
  0.2852354894190583  0.8688825066080739  0.0225270933136343   F   F   F
  0.6186230533216488  0.7022068175910832  0.1258184463500029   F   F   F
  0.2020706907532386  0.0354384205634375  0.2263238050500007   F   F   F
  0.8687394935090396  0.9521797718305507  0.4300947598045468   F   F   F
  0.1187423094229700  0.4521759557689435  0.4300843759545430   F   F   F
  0.1186843213911786  0.9522650301157469  0.4300939734590941   F   F   F
  0.8686853147962594  0.4522326651081556  0.4300908527909115   F   F   F
  0.3688076038864025  0.9521481458335614  0.4300873733363630   F   F   F
  0.8687828410682954  0.2022118773425419  0.4300906698000020   F   F   F
  0.1186859753708021  0.2022014229644356  0.4300919090954523   F   F   F
  0.6187381826448402  0.9522128233749854  0.4300496272681826   F   F   F
  0.8688281575170365  0.7022136241477170  0.4300691005727302   F   F   F
  0.3687143383226257  0.2022715201501413  0.4300762178818189   F   F   F
  0.3686709053337580  0.7022267412399046  0.4299828259772696   F   F   F
  0.6187241694760033  0.4520916848341372  0.4299671680227277   F   F   F
  0.1187354448550124  0.7022204919340282  0.4301215161090894   F   F   F
  0.6186894570684203  0.2021928602036454  0.4300894938363626   F   F   F
  0.5353701202483023  0.3688151131431496  0.3267344076772716   F   F   F
  0.5353229444776630  0.3688515242429062  0.0225188261863636   F   F   F
  0.5353988857010137  0.1187800321426025  0.3267489274545454   F   F   F
  0.5352844188575929  0.1188472174461808  0.0225122413818184   F   F   F
  0.8687431829148764  0.4521163119427314  0.1258339657363621   F   F   F
  0.1186618328038378  0.4521336923324455  0.1258615833409067   F   F   F
  0.0354192059391849  0.1187705414605347  0.3267670684000024   F   F   F
  0.0353355735821737  0.1188658910568563  0.0225377173454575   F   F   F
  0.1186661233344708  0.9521806652014675  0.1258543459590911   F   F   F
  0.3687782021921393  0.4522285955725636  0.4300488205318160   F   F   F
  0.4520087492990612  0.5354605264673324  0.2262866383045434   F   F   F
  0.6187160642475362  0.7023021626088095  0.4299968433909100   F   F   F
  0.3686770453103705  0.2021458108824206  0.1258197763590942   F   F   F
  0.1186579069489184  0.2021872870581802  0.1258630045727287   F   F   F
  0.9520251686000663  0.7854638062188215  0.2263036935681839   F   F   F
  0.7854660678796179  0.6187902220889683  0.3267606134409107   F   F   F
  0.2854136038534918  0.6188195330979980  0.3267709042363620   F   F   F
  0.7852837391111365  0.6188576130176671  0.0225112044090920   F   F   F
  0.2852461012776430  0.6188516350834377  0.0225379505454555   F   F   F
  0.3686832298028335  0.7021648921987804  0.1258270348318149   F   F   F
  0.3686875066599526  0.4520960575857558  0.1258231083681807   F   F   F
  0.2020581530559014  0.2854212282021322  0.2262941433000023   F   F   F
  0.7853481468445551  0.3688903785723880  0.3267323431863645   F   F   F
  0.7852578610585610  0.3689142685275399  0.0225261667272747   F   F   F
  0.9520321170041655  0.0354850278086758  0.2262926236772742   F   F   F
  0.4520157232715931  0.7854799072262395  0.2262774938636340   F   F   F
  0.7020431045587969  0.5355441118376092  0.2262653116681790   F   F   F
  0.2020615560362060  0.7854197862180570  0.2262843982181835   F   F   F
  0.4519837473681108  0.0355049297786323  0.2262872168863623   F   F   F
  0.1186404143674196  0.7021652099016720  0.1258290745227271   F   F   F
  0.7020619156383816  0.0354900918866434  0.2263189488545478   F   F   F
  0.7853966745195322  0.1188946355036080  0.3267857802909120   F   F   F
  0.5353494581504279  0.8688892766285718  0.3267294329545436   F   F   F
  0.7852782275315136  0.1188589218212783  0.0225278501636339   F   F   F
  0.5352884954264283  0.8689065374604183  0.0225164836409064   F   F   F
  0.2020797399405581  0.5355085957138428  0.2263128811863666   F   F   F
  0.9519818235093709  0.2854957862953711  0.2263090099409055   F   F   F
  0.8687022914395541  0.9520960270943846  0.1258409898772754   F   F   F
  0.7020787219874052  0.2854374717529709  0.2262755355363666   F   F   F
  0.4520587143939494  0.2854447330307508  0.2262895048954547   F   F   F
  0.4731795563943351  0.5588197674525972  0.5682308411909105   T   T   T
  0.5114611309317567  0.5975118871530612  0.5711641446318148   T   T   T
 
  0.00000000E+00  0.00000000E+00  0.00000000E+00
  0.00000000E+00  0.00000000E+00  0.00000000E+00
  0.00000000E+00  0.00000000E+00  0.00000000E+00
  0.00000000E+00  0.00000000E+00  0.00000000E+00
  0.00000000E+00  0.00000000E+00  0.00000000E+00
  0.00000000E+00  0.00000000E+00  0.00000000E+00
  0.00000000E+00  0.00000000E+00  0.00000000E+00
  0.00000000E+00  0.00000000E+00  0.00000000E+00
  0.00000000E+00  0.00000000E+00  0.00000000E+00
  0.00000000E+00  0.00000000E+00  0.00000000E+00
  0.00000000E+00  0.00000000E+00  0.00000000E+00
  0.00000000E+00  0.00000000E+00  0.00000000E+00
  0.00000000E+00  0.00000000E+00  0.00000000E+00
  0.00000000E+00  0.00000000E+00  0.00000000E+00
  0.00000000E+00  0.00000000E+00  0.00000000E+00
  0.00000000E+00  0.00000000E+00  0.00000000E+00
  0.00000000E+00  0.00000000E+00  0.00000000E+00
  0.00000000E+00  0.00000000E+00  0.00000000E+00
  0.00000000E+00  0.00000000E+00  0.00000000E+00
  0.00000000E+00  0.00000000E+00  0.00000000E+00
  0.00000000E+00  0.00000000E+00  0.00000000E+00
  0.00000000E+00  0.00000000E+00  0.00000000E+00
  0.00000000E+00  0.00000000E+00  0.00000000E+00
  0.00000000E+00  0.00000000E+00  0.00000000E+00
  0.00000000E+00  0.00000000E+00  0.00000000E+00
  0.00000000E+00  0.00000000E+00  0.00000000E+00
  0.00000000E+00  0.00000000E+00  0.00000000E+00
  0.00000000E+00  0.00000000E+00  0.00000000E+00
  0.00000000E+00  0.00000000E+00  0.00000000E+00
  0.00000000E+00  0.00000000E+00  0.00000000E+00
  0.00000000E+00  0.00000000E+00  0.00000000E+00
  0.00000000E+00  0.00000000E+00  0.00000000E+00
  0.00000000E+00  0.00000000E+00  0.00000000E+00
  0.00000000E+00  0.00000000E+00  0.00000000E+00
  0.00000000E+00  0.00000000E+00  0.00000000E+00
  0.00000000E+00  0.00000000E+00  0.00000000E+00
  0.00000000E+00  0.00000000E+00  0.00000000E+00
  0.00000000E+00  0.00000000E+00  0.00000000E+00
  0.00000000E+00  0.00000000E+00  0.00000000E+00
  0.00000000E+00  0.00000000E+00  0.00000000E+00
  0.00000000E+00  0.00000000E+00  0.00000000E+00
  0.00000000E+00  0.00000000E+00  0.00000000E+00
  0.00000000E+00  0.00000000E+00  0.00000000E+00
  0.00000000E+00  0.00000000E+00  0.00000000E+00
  0.00000000E+00  0.00000000E+00  0.00000000E+00
  0.00000000E+00  0.00000000E+00  0.00000000E+00
  0.00000000E+00  0.00000000E+00  0.00000000E+00
  0.00000000E+00  0.00000000E+00  0.00000000E+00
  0.00000000E+00  0.00000000E+00  0.00000000E+00
  0.00000000E+00  0.00000000E+00  0.00000000E+00
  0.00000000E+00  0.00000000E+00  0.00000000E+00
  0.00000000E+00  0.00000000E+00  0.00000000E+00
  0.00000000E+00  0.00000000E+00  0.00000000E+00
  0.00000000E+00  0.00000000E+00  0.00000000E+00
  0.00000000E+00  0.00000000E+00  0.00000000E+00
  0.00000000E+00  0.00000000E+00  0.00000000E+00
  0.00000000E+00  0.00000000E+00  0.00000000E+00
  0.00000000E+00  0.00000000E+00  0.00000000E+00
  0.00000000E+00  0.00000000E+00  0.00000000E+00
  0.00000000E+00  0.00000000E+00  0.00000000E+00
  0.00000000E+00  0.00000000E+00  0.00000000E+00
  0.00000000E+00  0.00000000E+00  0.00000000E+00
  0.00000000E+00  0.00000000E+00  0.00000000E+00
  0.00000000E+00  0.00000000E+00  0.00000000E+00
  0.00000000E+00  0.00000000E+00  0.00000000E+00
  0.00000000E+00  0.00000000E+00  0.00000000E+00
  0.00000000E+00  0.00000000E+00  0.00000000E+00
  0.00000000E+00  0.00000000E+00  0.00000000E+00
  0.00000000E+00  0.00000000E+00  0.00000000E+00
  0.00000000E+00  0.00000000E+00  0.00000000E+00
  0.00000000E+00  0.00000000E+00  0.00000000E+00
  0.00000000E+00  0.00000000E+00  0.00000000E+00
  0.00000000E+00  0.00000000E+00  0.00000000E+00
  0.00000000E+00  0.00000000E+00  0.00000000E+00
  0.00000000E+00  0.00000000E+00  0.00000000E+00
  0.00000000E+00  0.00000000E+00  0.00000000E+00
  0.00000000E+00  0.00000000E+00  0.00000000E+00
  0.00000000E+00  0.00000000E+00  0.00000000E+00
  0.00000000E+00  0.00000000E+00  0.00000000E+00
  0.00000000E+00  0.00000000E+00  0.00000000E+00
  0.00000000E+00  0.00000000E+00  0.00000000E+00
  0.00000000E+00  0.00000000E+00  0.00000000E+00
