Pt111\(1\1\1)\(2)                       
   1.00000000000000     
    10.5600004195999997    0.0000000000000000    0.0000000000000000
    -5.2800002097999998    9.1452286273999999    0.0000000000000000
     0.0000000000000000    0.0000000000000000   20.0000000000000000
   Pt   H 
    64     1
Selective dynamics
Direct
  0.9999984446215961  0.0000015553793773  0.0557922949150012   F   F   F
  0.3333124378755201  0.1689122596331742  0.1793950871772267   T   T   T
  0.1681847092936692  0.3340483283634228  0.3104245329247490   T   T   T
  0.0005284435736641  0.0007592008923112  0.4152814862693788   T   T   T
  0.9999984416169312  0.2500015483757210  0.0557922949150012   F   F   F
  0.3333403655390654  0.4166720983294283  0.1929797557446591   T   T   T
  0.1686729103535498  0.0872997991235422  0.2984330405257936   T   T   T
  0.9997945669730584  0.2498227375640525  0.4216314658438733   T   T   T
  0.2499984416169312  0.2500015483757210  0.0557922949150012   F   F   F
  0.0856168522092844  0.4166842350110400  0.1793634026561435   T   T   T
  0.4170356623586571  0.0845510689695601  0.2957955892782209   T   T   T
  0.2479717395737495  0.2458945557812413  0.4387812178114174   T   T   T
  0.2499984446215961  0.0000015553793773  0.0557922949150012   F   F   F
  0.0856089096571537  0.1689192015907324  0.1793894184516418   T   T   T
  0.4158999119015192  0.3340475698564092  0.3104242232917400   T   T   T
  0.2502760926682868  0.0007582448418759  0.4152700290949056   T   T   T
  0.4999984446215961  0.0000015553793773  0.0557922949150012   F   F   F
  0.8343074541844828  0.1671411429828709  0.1766467133705305   T   T   T
  0.6653659187818661  0.3328904217034321  0.2957800491134250   T   T   T
  0.4999698374070221  0.9999240250886956  0.4171362594201398   T   T   T
  0.4999984296188273  0.2500015483757210  0.0557922949150012   F   F   F
  0.8331723206635857  0.4163502873746268  0.1751441132745910   T   T   T
  0.6666370535966095  0.0832437415243348  0.2963917926240640   T   T   T
  0.5000775647241795  0.2498245446890834  0.4216210881489175   T   T   T
  0.7499984076207227  0.2500015483757210  0.0557922949150012   F   F   F
  0.5810606128458744  0.4166766908015518  0.1793669507579949   T   T   T
  0.9175560729966463  0.0845520755140257  0.2958057059396424   T   T   T
  0.7500016749220535  0.2499596545033995  0.4171397811518673   T   T   T
  0.7499984216197078  0.0000015553793773  0.0557922949150012   F   F   F
  0.5828272034326005  0.1671385423052385  0.1766495521130835   T   T   T
  0.9175568092638358  0.3329022512446826  0.2957820167611018   T   T   T
  0.7499876744044371  0.9999202575884638  0.4171552586306646   T   T   T
  0.9999984376190483  0.5000015423780582  0.0557922949150012   F   F   F
  0.3333212599276933  0.6643951893051607  0.1793806012267964   T   T   T
  0.1676420712311923  0.8337713148279917  0.2922886595015513   T   T   T
  0.0005283742384421  0.4996340650201176  0.4152627841126488   T   T   T
  0.9999984326223199  0.7500015093827130  0.0557922949150012   F   F   F
  0.3336517906365231  0.9168249341404362  0.1751507046621228   T   T   T
  0.1686784918083859  0.5812756234123668  0.2984121403743174   T   T   T
  0.0000001602301296  0.7499591495703015  0.4104274759078592   T   T   T
  0.2499984326223199  0.7500015093827130  0.0557922949150012   F   F   F
  0.0840225406482347  0.9180395097362535  0.1747533804280152   T   T   T
  0.4158966517816722  0.5817527190119804  0.3104457661187254   T   T   T
  0.2502806403370101  0.7493828731005578  0.4152840597686875   T   T   T
  0.2499984376190483  0.5000015423780582  0.0557922949150012   F   F   F
  0.0840202836913377  0.6659812581616507  0.1747517498685198   T   T   T
  0.4170223383250402  0.8323572457549062  0.2958098371249491   T   T   T
  0.2479591697898869  0.5019283892928712  0.4387821619385548   T   T   T
  0.4999984376190483  0.5000015423780582  0.0557922949150012   F   F   F
  0.8319636587626604  0.6659825924706411  0.1747561513568314   T   T   T
  0.6653517100615929  0.8323447778317572  0.2958261994737725   T   T   T
  0.5040242827005912  0.5019331036371355  0.4387896704291521   T   T   T
  0.4999984326223199  0.7500015093827130  0.0557922949150012   F   F   F
  0.8331703586124632  0.9168222699607753  0.1751552301267054   T   T   T
  0.6626271712581513  0.5812717111266181  0.2984178214958177   T   T   T
  0.5000938271182136  0.7501285830607216  0.4216647646391181   T   T   T
  0.7499984106242152  0.7500015093827130  0.0557922949150012   F   F   F
  0.5828307180749945  0.9156765556158035  0.1766709824416921   T   T   T
  0.9161661100989775  0.5823131792311145  0.2922904303013638   T   T   T
  0.7491599589090825  0.7493855335843236  0.4153046016357749   T   T   T
  0.7499983926190481  0.5000015423780582  0.0557922949150012   F   F   F
  0.5810686422872706  0.6643904024959681  0.1793878337914947   T   T   T
  0.9161687811194597  0.8337697077774635  0.2922973103992419   T   T   T
  0.7491513453127894  0.4996332191734538  0.4152591790375908   T   T   T
  0.3333457329407565  0.4166482586297491  0.4893591990963913   T   T   T
 
  0.00000000E+00  0.00000000E+00  0.00000000E+00
  0.00000000E+00  0.00000000E+00  0.00000000E+00
  0.00000000E+00  0.00000000E+00  0.00000000E+00
  0.00000000E+00  0.00000000E+00  0.00000000E+00
  0.00000000E+00  0.00000000E+00  0.00000000E+00
  0.00000000E+00  0.00000000E+00  0.00000000E+00
  0.00000000E+00  0.00000000E+00  0.00000000E+00
  0.00000000E+00  0.00000000E+00  0.00000000E+00
  0.00000000E+00  0.00000000E+00  0.00000000E+00
  0.00000000E+00  0.00000000E+00  0.00000000E+00
  0.00000000E+00  0.00000000E+00  0.00000000E+00
  0.00000000E+00  0.00000000E+00  0.00000000E+00
  0.00000000E+00  0.00000000E+00  0.00000000E+00
  0.00000000E+00  0.00000000E+00  0.00000000E+00
  0.00000000E+00  0.00000000E+00  0.00000000E+00
  0.00000000E+00  0.00000000E+00  0.00000000E+00
  0.00000000E+00  0.00000000E+00  0.00000000E+00
  0.00000000E+00  0.00000000E+00  0.00000000E+00
  0.00000000E+00  0.00000000E+00  0.00000000E+00
  0.00000000E+00  0.00000000E+00  0.00000000E+00
  0.00000000E+00  0.00000000E+00  0.00000000E+00
  0.00000000E+00  0.00000000E+00  0.00000000E+00
  0.00000000E+00  0.00000000E+00  0.00000000E+00
  0.00000000E+00  0.00000000E+00  0.00000000E+00
  0.00000000E+00  0.00000000E+00  0.00000000E+00
  0.00000000E+00  0.00000000E+00  0.00000000E+00
  0.00000000E+00  0.00000000E+00  0.00000000E+00
  0.00000000E+00  0.00000000E+00  0.00000000E+00
  0.00000000E+00  0.00000000E+00  0.00000000E+00
  0.00000000E+00  0.00000000E+00  0.00000000E+00
  0.00000000E+00  0.00000000E+00  0.00000000E+00
  0.00000000E+00  0.00000000E+00  0.00000000E+00
  0.00000000E+00  0.00000000E+00  0.00000000E+00
  0.00000000E+00  0.00000000E+00  0.00000000E+00
  0.00000000E+00  0.00000000E+00  0.00000000E+00
  0.00000000E+00  0.00000000E+00  0.00000000E+00
  0.00000000E+00  0.00000000E+00  0.00000000E+00
  0.00000000E+00  0.00000000E+00  0.00000000E+00
  0.00000000E+00  0.00000000E+00  0.00000000E+00
  0.00000000E+00  0.00000000E+00  0.00000000E+00
  0.00000000E+00  0.00000000E+00  0.00000000E+00
  0.00000000E+00  0.00000000E+00  0.00000000E+00
  0.00000000E+00  0.00000000E+00  0.00000000E+00
  0.00000000E+00  0.00000000E+00  0.00000000E+00
  0.00000000E+00  0.00000000E+00  0.00000000E+00
  0.00000000E+00  0.00000000E+00  0.00000000E+00
  0.00000000E+00  0.00000000E+00  0.00000000E+00
  0.00000000E+00  0.00000000E+00  0.00000000E+00
  0.00000000E+00  0.00000000E+00  0.00000000E+00
  0.00000000E+00  0.00000000E+00  0.00000000E+00
  0.00000000E+00  0.00000000E+00  0.00000000E+00
  0.00000000E+00  0.00000000E+00  0.00000000E+00
  0.00000000E+00  0.00000000E+00  0.00000000E+00
  0.00000000E+00  0.00000000E+00  0.00000000E+00
  0.00000000E+00  0.00000000E+00  0.00000000E+00
  0.00000000E+00  0.00000000E+00  0.00000000E+00
  0.00000000E+00  0.00000000E+00  0.00000000E+00
  0.00000000E+00  0.00000000E+00  0.00000000E+00
  0.00000000E+00  0.00000000E+00  0.00000000E+00
  0.00000000E+00  0.00000000E+00  0.00000000E+00
  0.00000000E+00  0.00000000E+00  0.00000000E+00
  0.00000000E+00  0.00000000E+00  0.00000000E+00
  0.00000000E+00  0.00000000E+00  0.00000000E+00
  0.00000000E+00  0.00000000E+00  0.00000000E+00
  0.00000000E+00  0.00000000E+00  0.00000000E+00
