Pt111\(1\1\1)\(2)                       
   1.00000000000000     
    10.5600004195999997    0.0000000000000000    0.0000000000000000
    -5.2800002097999998    9.1452286273999999    0.0000000000000000
     0.0000000000000000    0.0000000000000000   20.0000000000000000
   Pt   H 
    64     2
Selective dynamics
Direct
  0.9999984446215961  0.0000015553793773  0.0557922949150012   F   F   F
  0.3333317286582087  0.1666682603465262  0.1775239735950009   F   F   F
  0.1700916373694774  0.3338301762278622  0.2996235143084554   T   T   T
  0.0008288377422950  0.0010733387569775  0.4196084630353626   T   T   T
  0.9999984416169312  0.2500015483757210  0.0557922949150012   F   F   F
  0.3333317206590891  0.4166682673501754  0.1775239735950009   F   F   F
  0.1686057086711515  0.0866685495447246  0.2986939705414094   T   T   T
  0.0011424664122820  0.2500267843592188  0.4156439221813399   T   T   T
  0.2499984416169312  0.2500015483757210  0.0557922949150012   F   F   F
  0.0833317206590891  0.4166682673501754  0.1775239735950009   F   F   F
  0.4171595863149919  0.0851880290838530  0.2972998532619478   T   T   T
  0.2469117455562554  0.2472786371136314  0.4406692065110933   T   T   T
  0.2499984446215961  0.0000015553793773  0.0557922949150012   F   F   F
  0.0833317236582047  0.1666682603465262  0.1775239735950009   F   F   F
  0.4163616978219734  0.3339854004219800  0.3015238579063377   T   T   T
  0.2498226196027633  0.0013723592958174  0.4161054676796612   T   T   T
  0.4999984446215961  0.0000015553793773  0.0557922949150012   F   F   F
  0.8333316836582085  0.1666682603465262  0.1775239735950009   F   F   F
  0.6651425700243441  0.3331089029526044  0.2973269168789748   T   T   T
  0.5004915521645967  0.0001873268967422  0.4180174223266535   T   T   T
  0.4999984296188273  0.2500015483757210  0.0557922949150012   F   F   F
  0.8333316756590889  0.4166682673501754  0.1775239735950009   F   F   F
  0.6670158752569555  0.0833918127265265  0.2971659639528557   T   T   T
  0.5013186545964735  0.2496152809737803  0.4233105145875855   T   T   T
  0.7499984076207227  0.2500015483757210  0.0557922949150012   F   F   F
  0.5833316756590889  0.4166682673501754  0.1775239735950009   F   F   F
  0.9182218965858658  0.0835492152345142  0.2965702846130109   T   T   T
  0.7505275285355234  0.2501968066471741  0.4180859410355743   T   T   T
  0.7499984216197078  0.0000015553793773  0.0557922949150012   F   F   F
  0.5833316616506323  0.1666682603465262  0.1775239735950009   F   F   F
  0.9173079158379248  0.3334603410399322  0.2964256387973819   T   T   T
  0.7507509513583083  0.0001219069569616  0.4172600356113821   T   T   T
  0.9999984376190483  0.5000015423780582  0.0557922949150012   F   F   F
  0.3333317066506325  0.6666682603465262  0.1775239735950009   F   F   F
  0.1674478920982785  0.8336606615370300  0.2964519837117310   T   T   T
 -0.0005681022150567  0.5005401242457533  0.4182921610916018   T   T   T
  0.9999984326223199  0.7500015093827130  0.0557922949150012   F   F   F
  0.3333317276521655  0.9166682803514945  0.1775239735950009   F   F   F
  0.1685684379257376  0.5818707714494985  0.2986688202358774   T   T   T
 -0.0000647792819800  0.7509971715497332  0.4160272638663841   T   T   T
  0.2499984326223199  0.7500015093827130  0.0557922949150012   F   F   F
  0.0833317276521655  0.9166682803514945  0.1775239735950009   F   F   F
  0.4165262138383246  0.5802855321344250  0.2996223191610909   T   T   T
  0.2501995150440930  0.7512531331264485  0.4183399764075934   T   T   T
  0.2499984376190483  0.5000015423780582  0.0557922949150012   F   F   F
  0.0833317066506325  0.6666682603465262  0.1775239735950009   F   F   F
  0.4169391716246927  0.8331045092061662  0.2964109901032533   T   T   T
  0.2487641846726248  0.5021057842150138  0.4254483653052341   T   T   T
  0.4999984376190483  0.5000015423780582  0.0557922949150012   F   F   F
  0.8333317066506325  0.6666682603465262  0.1775239735950009   F   F   F
  0.6668931830314431  0.8322540649648721  0.2966416902983794   T   T   T
  0.5037974345385390  0.5041262281225207  0.4385640900620733   T   T   T
  0.4999984326223199  0.7500015093827130  0.0557922949150012   F   F   F
  0.8333317046597415  0.9166682803514945  0.1775239735950009   F   F   F
  0.6637483353991398  0.5818361579892135  0.2986654179634279   T   T   T
  0.5007375256062686  0.7497724466263995  0.4156800305677897   T   T   T
  0.7499984106242152  0.7500015093827130  0.0557922949150012   F   F   F
  0.5833316826521724  0.9166682803514945  0.1775239735950009   F   F   F
  0.9167710353744856  0.5829645552074220  0.2964380107819309   T   T   T
  0.7499159213903950  0.7501627878692602  0.4198637815844494   T   T   T
  0.7499983926190481  0.5000015423780582  0.0557922949150012   F   F   F
  0.5833316616506323  0.6666682603465262  0.1775239735950009   F   F   F
  0.9167558033191219  0.8336115804987045  0.2971038881397541   T   T   T
  0.7496346923845572  0.5009847454295799  0.4161041313946021   T   T   T
  0.3125263292460297  0.4324841203333396  0.4857357070991827   T   T   T
  0.4346087485481697  0.3125290070002140  0.4852527498420620   T   T   T
 
  0.00000000E+00  0.00000000E+00  0.00000000E+00
  0.00000000E+00  0.00000000E+00  0.00000000E+00
  0.00000000E+00  0.00000000E+00  0.00000000E+00
  0.00000000E+00  0.00000000E+00  0.00000000E+00
  0.00000000E+00  0.00000000E+00  0.00000000E+00
  0.00000000E+00  0.00000000E+00  0.00000000E+00
  0.00000000E+00  0.00000000E+00  0.00000000E+00
  0.00000000E+00  0.00000000E+00  0.00000000E+00
  0.00000000E+00  0.00000000E+00  0.00000000E+00
  0.00000000E+00  0.00000000E+00  0.00000000E+00
  0.00000000E+00  0.00000000E+00  0.00000000E+00
  0.00000000E+00  0.00000000E+00  0.00000000E+00
  0.00000000E+00  0.00000000E+00  0.00000000E+00
  0.00000000E+00  0.00000000E+00  0.00000000E+00
  0.00000000E+00  0.00000000E+00  0.00000000E+00
  0.00000000E+00  0.00000000E+00  0.00000000E+00
  0.00000000E+00  0.00000000E+00  0.00000000E+00
  0.00000000E+00  0.00000000E+00  0.00000000E+00
  0.00000000E+00  0.00000000E+00  0.00000000E+00
  0.00000000E+00  0.00000000E+00  0.00000000E+00
  0.00000000E+00  0.00000000E+00  0.00000000E+00
  0.00000000E+00  0.00000000E+00  0.00000000E+00
  0.00000000E+00  0.00000000E+00  0.00000000E+00
  0.00000000E+00  0.00000000E+00  0.00000000E+00
  0.00000000E+00  0.00000000E+00  0.00000000E+00
  0.00000000E+00  0.00000000E+00  0.00000000E+00
  0.00000000E+00  0.00000000E+00  0.00000000E+00
  0.00000000E+00  0.00000000E+00  0.00000000E+00
  0.00000000E+00  0.00000000E+00  0.00000000E+00
  0.00000000E+00  0.00000000E+00  0.00000000E+00
  0.00000000E+00  0.00000000E+00  0.00000000E+00
  0.00000000E+00  0.00000000E+00  0.00000000E+00
  0.00000000E+00  0.00000000E+00  0.00000000E+00
  0.00000000E+00  0.00000000E+00  0.00000000E+00
  0.00000000E+00  0.00000000E+00  0.00000000E+00
  0.00000000E+00  0.00000000E+00  0.00000000E+00
  0.00000000E+00  0.00000000E+00  0.00000000E+00
  0.00000000E+00  0.00000000E+00  0.00000000E+00
  0.00000000E+00  0.00000000E+00  0.00000000E+00
  0.00000000E+00  0.00000000E+00  0.00000000E+00
  0.00000000E+00  0.00000000E+00  0.00000000E+00
  0.00000000E+00  0.00000000E+00  0.00000000E+00
  0.00000000E+00  0.00000000E+00  0.00000000E+00
  0.00000000E+00  0.00000000E+00  0.00000000E+00
  0.00000000E+00  0.00000000E+00  0.00000000E+00
  0.00000000E+00  0.00000000E+00  0.00000000E+00
  0.00000000E+00  0.00000000E+00  0.00000000E+00
  0.00000000E+00  0.00000000E+00  0.00000000E+00
  0.00000000E+00  0.00000000E+00  0.00000000E+00
  0.00000000E+00  0.00000000E+00  0.00000000E+00
  0.00000000E+00  0.00000000E+00  0.00000000E+00
  0.00000000E+00  0.00000000E+00  0.00000000E+00
  0.00000000E+00  0.00000000E+00  0.00000000E+00
  0.00000000E+00  0.00000000E+00  0.00000000E+00
  0.00000000E+00  0.00000000E+00  0.00000000E+00
  0.00000000E+00  0.00000000E+00  0.00000000E+00
  0.00000000E+00  0.00000000E+00  0.00000000E+00
  0.00000000E+00  0.00000000E+00  0.00000000E+00
  0.00000000E+00  0.00000000E+00  0.00000000E+00
  0.00000000E+00  0.00000000E+00  0.00000000E+00
  0.00000000E+00  0.00000000E+00  0.00000000E+00
  0.00000000E+00  0.00000000E+00  0.00000000E+00
  0.00000000E+00  0.00000000E+00  0.00000000E+00
  0.00000000E+00  0.00000000E+00  0.00000000E+00
  0.00000000E+00  0.00000000E+00  0.00000000E+00
  0.00000000E+00  0.00000000E+00  0.00000000E+00
