Pt   H                                  
   1.00000000000000     
    10.5600004195999997    0.0000000000000000    0.0000000000000000
    -5.2800002097999998    9.1452286273999999    0.0000000000000000
     0.0000000000000000    0.0000000000000000   20.0000000000000000
   Pt   H 
    64     2
Selective dynamics
Direct
  0.9999984446215961  0.0000015553793773  0.0557922949150012   F   F   F
  0.3332584529701491  0.1685988374567729  0.1792592646055825   T   T   T
  0.1691179866177529  0.3331958836965155  0.3090174642356464   T   T   T
  0.0026488780211431  0.0014452736283128  0.4177057292608563   T   T   T
  0.9999984416169312  0.2500015483757210  0.0557922949150012   F   F   F
  0.3334028168239099  0.4168273371172839  0.1894821493268411   T   T   T
  0.1692720300666986  0.0869814957648562  0.3007336814064437   T   T   T
  1.0010794203107647  0.2490270540112784  0.4217233701200845   T   T   T
  0.2499984416169312  0.2500015483757210  0.0557922949150012   F   F   F
  0.0852191286287551  0.4162276333515595  0.1786297976234975   T   T   T
  0.4168994738158996  0.0840445602288847  0.2958643825748202   T   T   T
  0.2485223928162761  0.2463682279929660  0.4503389478912744   T   T   T
  0.2499984446215961  0.0000015553793773  0.0557922949150012   F   F   F
  0.0853229649143189  0.1683921357794318  0.1809245860732266   T   T   T
  0.4157315489479167  0.3337824356517756  0.3071315071882263   T   T   T
  0.2498316108627897 -0.0002490832044488  0.4164911648446319   T   T   T
  0.4999984446215961  0.0000015553793773  0.0557922949150012   F   F   F
  0.8342029782701381  0.1666310053919280  0.1773590073722540   T   T   T
  0.6658798247216254  0.3329802590606386  0.2956421990538778   T   T   T
  0.5003675899752381  0.9992462257296822  0.4171209953274957   T   T   T
  0.4999984296188273  0.2500015483757210  0.0557922949150012   F   F   F
  0.8330936669969637  0.4164216918384581  0.1754161533874289   T   T   T
  0.6668815710141953  0.0828986773049552  0.2963368814124828   T   T   T
  0.5000379119916721  0.2490895351538346  0.4181368848352752   T   T   T
  0.7499984076207227  0.2500015483757210  0.0557922949150012   F   F   F
  0.5813900422994288  0.4167940989259306  0.1791468318159548   T   T   T
  0.9182130530345909  0.0837167223520513  0.2974445762798436   T   T   T
  0.7506189613107933  0.2492016709649012  0.4171422687870560   T   T   T
  0.7499984216197078  0.0000015553793773  0.0557922949150012   F   F   F
  0.5829633952837925  0.1669889752018867  0.1762741536543980   T   T   T
  0.9177894175362434  0.3318439545106099  0.2961477131022611   T   T   T
  0.7506980300146211  0.9989696501231772  0.4174205439811659   T   T   T
  0.9999984376190483  0.5000015423780582  0.0557922949150012   F   F   F
  0.3338972589545670  0.6649605036398402  0.1789779660076193   T   T   T
  0.1681009156967619  0.8337218412225498  0.2918075761761292   T   T   T
  1.0009311298967989  0.4988963554509478  0.4143160266425011   T   T   T
  0.9999984326223199  0.7500015093827130  0.0557922949150012   F   F   F
  0.3336442606092683  0.9168776699766749  0.1755887450508996   T   T   T
  0.1691163019933060  0.5805560676860864  0.2966357226469623   T   T   T
  1.0004482749771806  0.7496512468002043  0.4089984843900816   T   T   T
  0.2499984326223199  0.7500015093827130  0.0557922949150012   F   F   F
  0.0840636665292503  0.9185233975363873  0.1749533556609006   T   T   T
  0.4165278123154630  0.5804058656978461  0.3100152712247212   T   T   T
  0.2509300222732159  0.7480047021473560  0.4143823334850475   T   T   T
  0.2499984376190483  0.5000015423780582  0.0557922949150012   F   F   F
  0.0839586583458212  0.6660988869388409  0.1738911213260457   T   T   T
  0.4178860753235829  0.8318898626355483  0.2965636498214202   T   T   T
  0.2496294180417316  0.5003500227536455  0.4344877957757408   T   T   T
  0.4999984376190483  0.5000015423780582  0.0557922949150012   F   F   F
  0.8315884949000136  0.6661049869681467  0.1748164532832932   T   T   T
  0.6658434475848829  0.8315000165811947  0.2976468473556366   T   T   T
  0.5053476753725802  0.4996261325972853  0.4486543905344951   T   T   T
  0.4999984326223199  0.7500015093827130  0.0557922949150012   F   F   F
  0.8331552453624221  0.9168882055040903  0.1757211420686877   T   T   T
  0.6630327123144227  0.5806139187356524  0.3003610556562632   T   T   T
  0.5008369643630760  0.7484407000237546  0.4225308114470823   T   T   T
  0.7499984106242152  0.7500015093827130  0.0557922949150012   F   F   F
  0.5832990765879500  0.9157579281392654  0.1775162088838101   T   T   T
  0.9160813614161206  0.5819217561727434  0.2916593013077264   T   T   T
  0.7486883926443109  0.7474062295491434  0.4173081283378854   T   T   T
  0.7499983926190481  0.5000015423780582  0.0557922949150012   F   F   F
  0.5816657869992007  0.6648214366406865  0.1810877821034389   T   T   T
  0.9161576284958478  0.8340075578789069  0.2924588317307683   T   T   T
  0.7507846901467926  0.4999231723558731  0.4164202899851141   T   T   T
  0.3065139829628672  0.3974050566095272  0.5025894322845497   T   T   T
  0.4288100032005467  0.3642063920961119  0.5064921613249896   T   T   T
 
  0.00000000E+00  0.00000000E+00  0.00000000E+00
  0.00000000E+00  0.00000000E+00  0.00000000E+00
  0.00000000E+00  0.00000000E+00  0.00000000E+00
  0.00000000E+00  0.00000000E+00  0.00000000E+00
  0.00000000E+00  0.00000000E+00  0.00000000E+00
  0.00000000E+00  0.00000000E+00  0.00000000E+00
  0.00000000E+00  0.00000000E+00  0.00000000E+00
  0.00000000E+00  0.00000000E+00  0.00000000E+00
  0.00000000E+00  0.00000000E+00  0.00000000E+00
  0.00000000E+00  0.00000000E+00  0.00000000E+00
  0.00000000E+00  0.00000000E+00  0.00000000E+00
  0.00000000E+00  0.00000000E+00  0.00000000E+00
  0.00000000E+00  0.00000000E+00  0.00000000E+00
  0.00000000E+00  0.00000000E+00  0.00000000E+00
  0.00000000E+00  0.00000000E+00  0.00000000E+00
  0.00000000E+00  0.00000000E+00  0.00000000E+00
  0.00000000E+00  0.00000000E+00  0.00000000E+00
  0.00000000E+00  0.00000000E+00  0.00000000E+00
  0.00000000E+00  0.00000000E+00  0.00000000E+00
  0.00000000E+00  0.00000000E+00  0.00000000E+00
  0.00000000E+00  0.00000000E+00  0.00000000E+00
  0.00000000E+00  0.00000000E+00  0.00000000E+00
  0.00000000E+00  0.00000000E+00  0.00000000E+00
  0.00000000E+00  0.00000000E+00  0.00000000E+00
  0.00000000E+00  0.00000000E+00  0.00000000E+00
  0.00000000E+00  0.00000000E+00  0.00000000E+00
  0.00000000E+00  0.00000000E+00  0.00000000E+00
  0.00000000E+00  0.00000000E+00  0.00000000E+00
  0.00000000E+00  0.00000000E+00  0.00000000E+00
  0.00000000E+00  0.00000000E+00  0.00000000E+00
  0.00000000E+00  0.00000000E+00  0.00000000E+00
  0.00000000E+00  0.00000000E+00  0.00000000E+00
  0.00000000E+00  0.00000000E+00  0.00000000E+00
  0.00000000E+00  0.00000000E+00  0.00000000E+00
  0.00000000E+00  0.00000000E+00  0.00000000E+00
  0.00000000E+00  0.00000000E+00  0.00000000E+00
  0.00000000E+00  0.00000000E+00  0.00000000E+00
  0.00000000E+00  0.00000000E+00  0.00000000E+00
  0.00000000E+00  0.00000000E+00  0.00000000E+00
  0.00000000E+00  0.00000000E+00  0.00000000E+00
  0.00000000E+00  0.00000000E+00  0.00000000E+00
  0.00000000E+00  0.00000000E+00  0.00000000E+00
  0.00000000E+00  0.00000000E+00  0.00000000E+00
  0.00000000E+00  0.00000000E+00  0.00000000E+00
  0.00000000E+00  0.00000000E+00  0.00000000E+00
  0.00000000E+00  0.00000000E+00  0.00000000E+00
  0.00000000E+00  0.00000000E+00  0.00000000E+00
  0.00000000E+00  0.00000000E+00  0.00000000E+00
  0.00000000E+00  0.00000000E+00  0.00000000E+00
  0.00000000E+00  0.00000000E+00  0.00000000E+00
  0.00000000E+00  0.00000000E+00  0.00000000E+00
  0.00000000E+00  0.00000000E+00  0.00000000E+00
  0.00000000E+00  0.00000000E+00  0.00000000E+00
  0.00000000E+00  0.00000000E+00  0.00000000E+00
  0.00000000E+00  0.00000000E+00  0.00000000E+00
  0.00000000E+00  0.00000000E+00  0.00000000E+00
  0.00000000E+00  0.00000000E+00  0.00000000E+00
  0.00000000E+00  0.00000000E+00  0.00000000E+00
  0.00000000E+00  0.00000000E+00  0.00000000E+00
  0.00000000E+00  0.00000000E+00  0.00000000E+00
  0.00000000E+00  0.00000000E+00  0.00000000E+00
  0.00000000E+00  0.00000000E+00  0.00000000E+00
  0.00000000E+00  0.00000000E+00  0.00000000E+00
  0.00000000E+00  0.00000000E+00  0.00000000E+00
  0.00000000E+00  0.00000000E+00  0.00000000E+00
  0.00000000E+00  0.00000000E+00  0.00000000E+00
