Pt111                                   
   1.00000000000000     
    11.2227001190000006    0.0000000000000000    0.0000000000000000
     5.6113500595000003    9.7191434021000003    0.0000000000000000
     0.0000000000000000    0.0000000000000000   22.0000000000000000
   Pt   H 
    80     1
Selective dynamics
Direct
  0.7845534092830621  0.8696345801400353  0.3268030502699174   T   T   T
  0.0348014951348430  0.8695522219885865  0.3262516661118136   T   T   T
  0.0350040105001818  0.6194774252194473  0.3263304327470121   T   T   T
  0.7877823445571792  0.8670808116051774  0.0232283754500031   F   F   F
  0.0374189139465813  0.8678257128789326  0.0234304415681805   F   F   F
  0.0373322342602336  0.6174421460232153  0.0235851769636355   F   F   F
  0.6196700208836674  0.2016706913467772  0.1262028172181786   F   F   F
  0.3696667899435369  0.9516547613652406  0.1262923522909105   F   F   F
  0.0349479147117315  0.3693249050123302  0.3263706510396344   T   T   T
  0.0372639361192313  0.3676454605585846  0.0236796519636329   F   F   F
  0.8697526374307927  0.2020118507641087  0.1263251728090893   F   F   F
  0.9516597216822523  0.5361923859042161  0.2266669190262982   T   T   T
  0.2844671212157918  0.1198292815473647  0.3264261560037252   T   T   T
  0.5342193200055070  0.6194243762067685  0.3280174894425708   T   T   T
  0.2852753369883957  0.3700011927284748  0.3268333370882333   T   T   T
  0.2879023679735013  0.1175834067180332  0.0234926877227295   F   F   F
  0.5368647565825952  0.6174166658250400  0.0232058141090903   F   F   F
  0.2871568024506317  0.3677685875205512  0.0236071656409109   F   F   F
  0.6195013167109238  0.9515151321362154  0.1261890620318198   F   F   F
  0.7016905579038570  0.7855991215038063  0.2263224335291607   T   T   T
  0.8691113435502942  0.7016533067025748  0.1263323943545487   F   F   F
  0.6190601391480044  0.4520350780862756  0.1262751496909118   F   F   F
  0.2848242380458280  0.8692118948177581  0.3267312452377194   T   T   T
  0.2874523635700967  0.8677275962692121  0.0232872904090939   F   F   F
  0.6188434323916709  0.7016322506185659  0.1261512333954542   F   F   F
  0.2020629764965287  0.0357000292338106  0.2262589901411881   T   T   T
  0.8681797479182842  0.9542025183753557  0.4295506033827718   T   T   T
  0.1169913996037234  0.4534960898336401  0.4292842897720692   T   T   T
  0.1166913763184362  0.9541805780840587  0.4291888040339132   T   T   T
  0.8683060801984400  0.4533079379833709  0.4292269592184008   T   T   T
  0.3676706357309362  0.9542137452925050  0.4292806086557254   T   T   T
  0.8680695013606058  0.2029189688907439  0.4292321985648048   T   T   T
  0.1176172466434282  0.2034238499241614  0.4291977991068719   T   T   T
  0.6161156367122894  0.9541850492163541  0.4295960413883991   T   T   T
  0.8684438220640587  0.7017810422964879  0.4295818098871814   T   T   T
  0.3677630318106690  0.2029013113577836  0.4293330727256883   T   T   T
  0.3644933784034199  0.7096480345037077  0.4313617667608617   T   T   T
  0.6232090468852789  0.4506596847880944  0.4312900530008341   T   T   T
  0.1121062051850659  0.7061434875958645  0.4292342939088610   T   T   T
  0.6200716972792951  0.1981194266123296  0.4291660720231119   T   T   T
  0.5344421198554615  0.3704402750895570  0.3279358011247243   T   T   T
  0.5374204721475664  0.3672202759276928  0.0233621174999996   F   F   F
  0.5347501182399704  0.1197784268805158  0.3262691528088810   T   T   T
  0.5376648772452270  0.1174060813480153  0.0233128439863606   F   F   F
  0.8692455338353398  0.4518739258287994  0.1263950536318177   F   F   F
  0.1194358391914676  0.4518368818749110  0.1266082093818213   F   F   F
  0.0347189521394269  0.1198191140697316  0.3263176625218284   T   T   T
  0.0377918282934147  0.1177576625068326  0.0234997229681824   F   F   F
  0.1197035971170948  0.9518153428419609  0.1263219517136349   F   F   F
  0.3649634210865669  0.4506444342724921  0.4312931846797305   T   T   T
  0.4519246101742138  0.5359018976800236  0.2270028221443119   T   T   T
  0.6203301024071359  0.7062149937392034  0.4291962642764330   T   T   T
  0.3698465057015170  0.2018257351338377  0.1265096085409070   F   F   F
  0.1199014270121594  0.2018933921765154  0.1264670229363603   F   F   F
  0.9517020669433671  0.7857886888026541  0.2263873808497897   T   T   T
  0.7844656209174150  0.6194431306377398  0.3263149752669589   T   T   T
  0.2852951724829214  0.6196304273330185  0.3280727046808343   T   T   T
  0.7871133338516003  0.6174546998456023  0.0232699033863639   F   F   F
  0.2871024521542793  0.6174712599469743  0.0234179754500019   F   F   F
  0.3689603496074838  0.7018763462967357  0.1263263623909125   F   F   F
  0.3693363278021309  0.4518405706362074  0.1265326674363649   F   F   F
  0.2024452561759390  0.2859175341405773  0.2264345350659432   T   T   T
  0.7839608760763319  0.3699174048747224  0.3267123705391944   T   T   T
  0.7872800860235785  0.3674893133615313  0.0233192888772749   F   F   F
  0.9517125539905100  0.0356855827232883  0.2264921028929368   T   T   T
  0.4518377608647006  0.7850766854653729  0.2266100297633090   T   T   T
  0.7010811208142158  0.5358667544692931  0.2266384859078409   T   T   T
  0.2024113306195604  0.7851529680207689  0.2266343579207814   T   T   T
  0.4523553097413167  0.0354751715678441  0.2266061049069523   T   T   T
  0.1191333629211115  0.7018294153295628  0.1264430731227293   F   F   F
  0.7019986413588046  0.0356265080676786  0.2262766039842801   T   T   T
  0.7844146951708593  0.1199009274472571  0.3262467804393409   T   T   T
  0.5345365216559452  0.8694114075336133  0.3263152134191430   T   T   T
  0.7878922158176707  0.1173367308227569  0.0233108066363670   F   F   F
  0.5375340891822233  0.8675428119702531  0.0231056558545433   F   F   F
  0.2027026334520836  0.5359354503876060  0.2268407919123130   T   T   T
  0.9517230217043789  0.2860268600685386  0.2263151599559526   T   T   T
  0.8695619235624648  0.9516372471571444  0.1262508714045438   F   F   F
  0.7013542471340555  0.2863864767210567  0.2265390708860437   T   T   T
  0.4523851578944950  0.2863499819084723  0.2267316297632630   T   T   T
  0.4510416896407896  0.5377788705931400  0.4692093325142744   T   T   T
 
  0.00000000E+00  0.00000000E+00  0.00000000E+00
  0.00000000E+00  0.00000000E+00  0.00000000E+00
  0.00000000E+00  0.00000000E+00  0.00000000E+00
  0.00000000E+00  0.00000000E+00  0.00000000E+00
  0.00000000E+00  0.00000000E+00  0.00000000E+00
  0.00000000E+00  0.00000000E+00  0.00000000E+00
  0.00000000E+00  0.00000000E+00  0.00000000E+00
  0.00000000E+00  0.00000000E+00  0.00000000E+00
  0.00000000E+00  0.00000000E+00  0.00000000E+00
  0.00000000E+00  0.00000000E+00  0.00000000E+00
  0.00000000E+00  0.00000000E+00  0.00000000E+00
  0.00000000E+00  0.00000000E+00  0.00000000E+00
  0.00000000E+00  0.00000000E+00  0.00000000E+00
  0.00000000E+00  0.00000000E+00  0.00000000E+00
  0.00000000E+00  0.00000000E+00  0.00000000E+00
  0.00000000E+00  0.00000000E+00  0.00000000E+00
  0.00000000E+00  0.00000000E+00  0.00000000E+00
  0.00000000E+00  0.00000000E+00  0.00000000E+00
  0.00000000E+00  0.00000000E+00  0.00000000E+00
  0.00000000E+00  0.00000000E+00  0.00000000E+00
  0.00000000E+00  0.00000000E+00  0.00000000E+00
  0.00000000E+00  0.00000000E+00  0.00000000E+00
  0.00000000E+00  0.00000000E+00  0.00000000E+00
  0.00000000E+00  0.00000000E+00  0.00000000E+00
  0.00000000E+00  0.00000000E+00  0.00000000E+00
  0.00000000E+00  0.00000000E+00  0.00000000E+00
  0.00000000E+00  0.00000000E+00  0.00000000E+00
  0.00000000E+00  0.00000000E+00  0.00000000E+00
  0.00000000E+00  0.00000000E+00  0.00000000E+00
  0.00000000E+00  0.00000000E+00  0.00000000E+00
  0.00000000E+00  0.00000000E+00  0.00000000E+00
  0.00000000E+00  0.00000000E+00  0.00000000E+00
  0.00000000E+00  0.00000000E+00  0.00000000E+00
  0.00000000E+00  0.00000000E+00  0.00000000E+00
  0.00000000E+00  0.00000000E+00  0.00000000E+00
  0.00000000E+00  0.00000000E+00  0.00000000E+00
  0.00000000E+00  0.00000000E+00  0.00000000E+00
  0.00000000E+00  0.00000000E+00  0.00000000E+00
  0.00000000E+00  0.00000000E+00  0.00000000E+00
  0.00000000E+00  0.00000000E+00  0.00000000E+00
  0.00000000E+00  0.00000000E+00  0.00000000E+00
  0.00000000E+00  0.00000000E+00  0.00000000E+00
  0.00000000E+00  0.00000000E+00  0.00000000E+00
  0.00000000E+00  0.00000000E+00  0.00000000E+00
  0.00000000E+00  0.00000000E+00  0.00000000E+00
  0.00000000E+00  0.00000000E+00  0.00000000E+00
  0.00000000E+00  0.00000000E+00  0.00000000E+00
  0.00000000E+00  0.00000000E+00  0.00000000E+00
  0.00000000E+00  0.00000000E+00  0.00000000E+00
  0.00000000E+00  0.00000000E+00  0.00000000E+00
  0.00000000E+00  0.00000000E+00  0.00000000E+00
  0.00000000E+00  0.00000000E+00  0.00000000E+00
  0.00000000E+00  0.00000000E+00  0.00000000E+00
  0.00000000E+00  0.00000000E+00  0.00000000E+00
  0.00000000E+00  0.00000000E+00  0.00000000E+00
  0.00000000E+00  0.00000000E+00  0.00000000E+00
  0.00000000E+00  0.00000000E+00  0.00000000E+00
  0.00000000E+00  0.00000000E+00  0.00000000E+00
  0.00000000E+00  0.00000000E+00  0.00000000E+00
  0.00000000E+00  0.00000000E+00  0.00000000E+00
  0.00000000E+00  0.00000000E+00  0.00000000E+00
  0.00000000E+00  0.00000000E+00  0.00000000E+00
  0.00000000E+00  0.00000000E+00  0.00000000E+00
  0.00000000E+00  0.00000000E+00  0.00000000E+00
  0.00000000E+00  0.00000000E+00  0.00000000E+00
  0.00000000E+00  0.00000000E+00  0.00000000E+00
  0.00000000E+00  0.00000000E+00  0.00000000E+00
  0.00000000E+00  0.00000000E+00  0.00000000E+00
  0.00000000E+00  0.00000000E+00  0.00000000E+00
  0.00000000E+00  0.00000000E+00  0.00000000E+00
  0.00000000E+00  0.00000000E+00  0.00000000E+00
  0.00000000E+00  0.00000000E+00  0.00000000E+00
  0.00000000E+00  0.00000000E+00  0.00000000E+00
  0.00000000E+00  0.00000000E+00  0.00000000E+00
  0.00000000E+00  0.00000000E+00  0.00000000E+00
  0.00000000E+00  0.00000000E+00  0.00000000E+00
  0.00000000E+00  0.00000000E+00  0.00000000E+00
  0.00000000E+00  0.00000000E+00  0.00000000E+00
  0.00000000E+00  0.00000000E+00  0.00000000E+00
  0.00000000E+00  0.00000000E+00  0.00000000E+00
  0.00000000E+00  0.00000000E+00  0.00000000E+00
