Pt111\(1\1\1)\(2)                       
   1.00000000000000     
    10.5600004195999997    0.0000000000000000    0.0000000000000000
    -5.2800002097999998    9.1452286273999999    0.0000000000000000
     0.0000000000000000    0.0000000000000000   20.0000000000000000
   Pt   H 
    64     2
Selective dynamics
Direct
  0.9999984446215961  0.0000015553793773  0.0557922949150012   F   F   F
  0.3333093871396784  0.1666176119840017  0.1774143513361039   T   T   T
  0.1666198851816532  0.3333428046138920  0.2974233158504163   T   T   T
  0.9999903608453735  0.9999997277082073  0.4189938819047612   T   T   T
  0.9999984416169312  0.2500015483757210  0.0557922949150012   F   F   F
  0.3333107677314899  0.4166884205370565  0.1773756399761837   T   T   T
  0.1666726844543618  0.0833058891666028  0.2974041201476254   T   T   T
  0.9999658570957664  0.2499802220261103  0.4189969351212284   T   T   T
  0.2499984416169312  0.2500015483757210  0.0557922949150012   F   F   F
  0.0833464675156179  0.4166522189778092  0.1774445011762538   T   T   T
  0.4166333798822777  0.0833327894362981  0.2973862368545355   T   T   T
  0.2499351970828982  0.2499607171493849  0.4189164944921018   T   T   T
  0.2499984446215961  0.0000015553793773  0.0557922949150012   F   F   F
  0.0833350786745441  0.1666564541016555  0.1774063628278242   T   T   T
  0.4167070796423715  0.3333059367072053  0.2974608130428038   T   T   T
  0.2500204042262908  0.0000102761464049  0.4190173634543299   T   T   T
  0.4999984446215961  0.0000015553793773  0.0557922949150012   F   F   F
  0.8333327515930407  0.1666681628797235  0.1774204691638772   T   T   T
  0.6666695432199603  0.3333642401465013  0.2973914656492838   T   T   T
  0.5000029278522504  0.9999990495240283  0.4189875686597730   T   T   T
  0.4999984296188273  0.2500015483757210  0.0557922949150012   F   F   F
  0.8333056570879691  0.4166400370890244  0.1774236804073297   T   T   T
  0.6666713416153627  0.0833287408797148  0.2974204842753778   T   T   T
  0.5000575728983492  0.2499475207964679  0.4189816508429445   T   T   T
  0.7499984076207227  0.2500015483757210  0.0557922949150012   F   F   F
  0.5833693223932173  0.4166835249993710  0.1774181702143878   T   T   T
  0.9166865737822363  0.0833373053495805  0.2974069166632063   T   T   T
  0.7499989111440897  0.2499947431279921  0.4189840297332452   T   T   T
  0.7499984216197078  0.0000015553793773  0.0557922949150012   F   F   F
  0.5833288711282449  0.1666723782068686  0.1774196594852384   T   T   T
  0.9166910458612207  0.3333497509811423  0.2974068718309368   T   T   T
  0.7499994028854999  0.9999966870617172  0.4190024988124961   T   T   T
  0.9999984376190483  0.5000015423780582  0.0557922949150012   F   F   F
  0.3333459700698143  0.6666484434288762  0.1774466764285592   T   T   T
  0.1666748867444241  0.8333377854450106  0.2973885611503420   T   T   T
  0.0000204550721321  0.5000006772551444  0.4189867247566497   T   T   T
  0.9999984326223199  0.7500015093827130  0.0557922949150012   F   F   F
  0.3333554214144030  0.9166998421421511  0.1774242546711378   T   T   T
  0.1666712844538125  0.5833291113415342  0.2973781558703479   T   T   T
  0.0000029501814751  0.7499990605798814  0.4189863159624991   T   T   T
  0.2499984326223199  0.7500015093827130  0.0557922949150012   F   F   F
  0.0833859432382980  0.9167659870562233  0.1774397657477991   T   T   T
  0.4166685715453511  0.5833907624436563  0.2974148803362979   T   T   T
  0.2499987635602707  0.7499824587552908  0.4189862851333288   T   T   T
  0.2499984376190483  0.5000015423780582  0.0557922949150012   F   F   F
  0.0833438175836605  0.6666478978430348  0.1774029677281845   T   T   T
  0.4166573849461912  0.8333117196928441  0.2974057226523783   T   T   T
  0.2499852700445828  0.5000133853540092  0.4189983992302615   T   T   T
  0.4999984376190483  0.5000015423780582  0.0557922949150012   F   F   F
  0.8332448136303299  0.6666166994434732  0.1774330602198191   T   T   T
  0.6666604237431315  0.8333128684705429  0.2974076279378650   T   T   T
  0.5000451069794778  0.5000665173378422  0.4189212752251663   T   T   T
  0.4999984326223199  0.7500015093827130  0.0557922949150012   F   F   F
  0.8333297300059286  0.9166719935182357  0.1774300015370613   T   T   T
  0.6666949918217782  0.5833347431296332  0.2974023822572605   T   T   T
  0.5000199572777362  0.7500374216590870  0.4190092969262977   T   T   T
  0.7499984106242152  0.7500015093827130  0.0557922949150012   F   F   F
  0.5833301548512253  0.9166645513288287  0.1774219655336680   T   T   T
  0.9166656077731332  0.5833285415527030  0.2973896180403841   T   T   T
  0.7500014614987123  0.7500071044153813  0.4189915904969794   T   T   T
  0.7499983926190481  0.5000015423780582  0.0557922949150012   F   F   F
  0.5833326650969610  0.6666593002901280  0.1774131453003562   T   T   T
  0.9166635062033421  0.8333363495018560  0.2973934257404238   T   T   T
  0.7499823123818530  0.4999790869294571  0.4190071950328544   T   T   T
  0.3799544244535014  0.4112847972053117  0.5670597455780637   T   T   T
  0.3720352983366624  0.3373055503576410  0.5730514425730604   T   T   T
 
  0.00000000E+00  0.00000000E+00  0.00000000E+00
  0.00000000E+00  0.00000000E+00  0.00000000E+00
  0.00000000E+00  0.00000000E+00  0.00000000E+00
  0.00000000E+00  0.00000000E+00  0.00000000E+00
  0.00000000E+00  0.00000000E+00  0.00000000E+00
  0.00000000E+00  0.00000000E+00  0.00000000E+00
  0.00000000E+00  0.00000000E+00  0.00000000E+00
  0.00000000E+00  0.00000000E+00  0.00000000E+00
  0.00000000E+00  0.00000000E+00  0.00000000E+00
  0.00000000E+00  0.00000000E+00  0.00000000E+00
  0.00000000E+00  0.00000000E+00  0.00000000E+00
  0.00000000E+00  0.00000000E+00  0.00000000E+00
  0.00000000E+00  0.00000000E+00  0.00000000E+00
  0.00000000E+00  0.00000000E+00  0.00000000E+00
  0.00000000E+00  0.00000000E+00  0.00000000E+00
  0.00000000E+00  0.00000000E+00  0.00000000E+00
  0.00000000E+00  0.00000000E+00  0.00000000E+00
  0.00000000E+00  0.00000000E+00  0.00000000E+00
  0.00000000E+00  0.00000000E+00  0.00000000E+00
  0.00000000E+00  0.00000000E+00  0.00000000E+00
  0.00000000E+00  0.00000000E+00  0.00000000E+00
  0.00000000E+00  0.00000000E+00  0.00000000E+00
  0.00000000E+00  0.00000000E+00  0.00000000E+00
  0.00000000E+00  0.00000000E+00  0.00000000E+00
  0.00000000E+00  0.00000000E+00  0.00000000E+00
  0.00000000E+00  0.00000000E+00  0.00000000E+00
  0.00000000E+00  0.00000000E+00  0.00000000E+00
  0.00000000E+00  0.00000000E+00  0.00000000E+00
  0.00000000E+00  0.00000000E+00  0.00000000E+00
  0.00000000E+00  0.00000000E+00  0.00000000E+00
  0.00000000E+00  0.00000000E+00  0.00000000E+00
  0.00000000E+00  0.00000000E+00  0.00000000E+00
  0.00000000E+00  0.00000000E+00  0.00000000E+00
  0.00000000E+00  0.00000000E+00  0.00000000E+00
  0.00000000E+00  0.00000000E+00  0.00000000E+00
  0.00000000E+00  0.00000000E+00  0.00000000E+00
  0.00000000E+00  0.00000000E+00  0.00000000E+00
  0.00000000E+00  0.00000000E+00  0.00000000E+00
  0.00000000E+00  0.00000000E+00  0.00000000E+00
  0.00000000E+00  0.00000000E+00  0.00000000E+00
  0.00000000E+00  0.00000000E+00  0.00000000E+00
  0.00000000E+00  0.00000000E+00  0.00000000E+00
  0.00000000E+00  0.00000000E+00  0.00000000E+00
  0.00000000E+00  0.00000000E+00  0.00000000E+00
  0.00000000E+00  0.00000000E+00  0.00000000E+00
  0.00000000E+00  0.00000000E+00  0.00000000E+00
  0.00000000E+00  0.00000000E+00  0.00000000E+00
  0.00000000E+00  0.00000000E+00  0.00000000E+00
  0.00000000E+00  0.00000000E+00  0.00000000E+00
  0.00000000E+00  0.00000000E+00  0.00000000E+00
  0.00000000E+00  0.00000000E+00  0.00000000E+00
  0.00000000E+00  0.00000000E+00  0.00000000E+00
  0.00000000E+00  0.00000000E+00  0.00000000E+00
  0.00000000E+00  0.00000000E+00  0.00000000E+00
  0.00000000E+00  0.00000000E+00  0.00000000E+00
  0.00000000E+00  0.00000000E+00  0.00000000E+00
  0.00000000E+00  0.00000000E+00  0.00000000E+00
  0.00000000E+00  0.00000000E+00  0.00000000E+00
  0.00000000E+00  0.00000000E+00  0.00000000E+00
  0.00000000E+00  0.00000000E+00  0.00000000E+00
  0.00000000E+00  0.00000000E+00  0.00000000E+00
  0.00000000E+00  0.00000000E+00  0.00000000E+00
  0.00000000E+00  0.00000000E+00  0.00000000E+00
  0.00000000E+00  0.00000000E+00  0.00000000E+00
  0.00000000E+00  0.00000000E+00  0.00000000E+00
  0.00000000E+00  0.00000000E+00  0.00000000E+00
