Pt   H                                  
   1.00000000000000     
    11.2227001190000006    0.0000000000000000    0.0000000000000000
     5.6113500595000003    9.7191434021000003    0.0000000000000000
     0.0000000000000000    0.0000000000000000   22.0000000000000000
   Pt   H 
    80     2
Direct
  0.7851344215727880  0.8690179445984257  0.3268286622666825
  0.0351700054067823  0.8689494889467780  0.3268811915603151
  0.0352846476984460  0.6187595508299476  0.3266716703100757
  0.7857541760547927  0.8685641992467916  0.0226845679204102
  0.0358828922549755  0.8685185179808151  0.0227012262804438
  0.0358518134244341  0.6184314583714171  0.0226334515661702
  0.6188392954843815  0.2019484193986901  0.1259023524627577
  0.3685868382720495  0.9522147825760603  0.1259629682303354
  0.0352239180699809  0.3687762842596969  0.3267653517635538
  0.0358682621208246  0.3684451561360410  0.0226389126050179
  0.8688840482120669  0.2019539755340872  0.1260180299347748
  0.9520097589898399  0.5354674531245389  0.2263029802587729
  0.2848785071134999  0.1191252606542330  0.3268042430096226
  0.5352986229760056  0.6191147780071246  0.3264184084503318
  0.2847259353380083  0.3686111846140905  0.3263116065457003
  0.2856242633982733  0.1186001917366891  0.0226572143817647
  0.5357918937566446  0.6184585089119483  0.0226038222307547
  0.2856893229528866  0.3684831690252980  0.0225948775281265
  0.6187584849108968  0.9520631847439851  0.1259354240300971
  0.7020289969695931  0.7855294243016669  0.2262854303348015
  0.8688770025256818  0.7019936229297320  0.1259061767835586
  0.6189417253239703  0.4519617366428075  0.1258807238567145
  0.2851717238478722  0.8690393727948219  0.3268152234007448
  0.2856826779043677  0.8686497462806072  0.0226640476909690
  0.6188361394464044  0.7021226285446976  0.1258148180623297
  0.2020381149204321  0.0349921701722970  0.2266097707095407
  0.8682932316398039  0.9524804747098791  0.4302872749799654
  0.1182327126323438  0.4523304652876817  0.4300825305437537
  0.1175591670068128  0.9532838886209059  0.4302908719696424
  0.8688770986373165  0.4525759402068146  0.4301213109290570
  0.3684505512645522  0.9530365177195868  0.4301306183866302
  0.8691119987466801  0.2017319805486385  0.4303106754476897
  0.1182822553944969  0.2025645268267937  0.4302684843828462
  0.6183055853238666  0.9529903592622013  0.4301297701724743
  0.8687537300869466  0.7025713344187962  0.4301271666818932
  0.3681599217745487  0.2024865424265475  0.4300983406242919
  0.3665376583963894  0.7041880189789257  0.4290390905581450
  0.6200539875273121  0.4507059960436786  0.4290236180259314
  0.1176000285340635  0.7026243297001337  0.4300439431855726
  0.6183606935818188  0.2018093019178628  0.4300449064372767
  0.5348906265702698  0.3689522173794279  0.3265916225459923
  0.5358538098648008  0.3685560472342502  0.0226223432115860
  0.5349768743339184  0.1190705644634032  0.3266626016578904
  0.5357252559700062  0.1185182021109491  0.0226497631170541
  0.8690299182811991  0.4518001689416892  0.1259512421270226
  0.1187910383025034  0.4519333193725588  0.1259181441989071
  0.0351172889630822  0.1189342673663244  0.3268671484572169
  0.0359001530976640  0.1186139088091295  0.0227862933677989
  0.1187378535123221  0.9520398200002524  0.1260505180981267
  0.3674951477950554  0.4516519742717312  0.4293173735406383
  0.4519807030175607  0.5355637363450328  0.2262170801575508
  0.6194645708534482  0.7037338728531410  0.4291434656229951
  0.3687132566492184  0.2020238813669432  0.1259073084488689
  0.1186689266915952  0.2019762991713377  0.1262502007108852
  0.9519473311873953  0.7854990472382752  0.2263694822486308
  0.7856269789498851  0.6187378009637684  0.3265606277799177
  0.2851098248746471  0.6186837101733156  0.3266026514122988
  0.7857611266992143  0.6184591273172644  0.0226546160830389
  0.2858645573400985  0.6184991597619732  0.0226470372882217
  0.3687891196061383  0.7021391125317907  0.1258729249585608
  0.3688447462087632  0.4519337504687266  0.1258191421028462
  0.2017999124439895  0.2853311510693831  0.2262870914511993
  0.7851359878290901  0.3690803352303428  0.3267922313729142
  0.7858481192490717  0.3685046602442597  0.0226430817656179
  0.9518040122626247  0.0353956763244417  0.2264809050800636
  0.4520376212878170  0.7854793522886490  0.2261979193334879
  0.7019004533105336  0.5356548315536583  0.2261803093429464
  0.2019786327944873  0.7853458477155872  0.2263723979634168
  0.4518365983395324  0.0356342298509270  0.2263105442193774
  0.1187515181134461  0.7020629866644400  0.1258981621110892
  0.7019933791565547  0.0354812279151029  0.2263813193718672
  0.7851036790467586  0.1190293216955150  0.3269004586541454
  0.5348853453830077  0.8694782741172445  0.3265391711587156
  0.7857907451879342  0.1185416744761499  0.0227167343592376
  0.5357075503228393  0.8685264380390719  0.0226571704932605
  0.2020262111244942  0.5356314067664993  0.2261954584569154
  0.9513803556325524  0.2855947898823355  0.2265970026017020
  0.8688433966437238  0.9519779818189311  0.1259595803251922
  0.7018871933617795  0.2854584717767491  0.2263378783548018
  0.4520821713987809  0.2855561542512801  0.2262084162227605
  0.4739121205120212  0.5586069157856631  0.5294686862266372
  0.5132424883371619  0.5980584763608990  0.5301955647237433
 
  0.00000000E+00  0.00000000E+00  0.00000000E+00
  0.00000000E+00  0.00000000E+00  0.00000000E+00
  0.00000000E+00  0.00000000E+00  0.00000000E+00
  0.00000000E+00  0.00000000E+00  0.00000000E+00
  0.00000000E+00  0.00000000E+00  0.00000000E+00
  0.00000000E+00  0.00000000E+00  0.00000000E+00
  0.00000000E+00  0.00000000E+00  0.00000000E+00
  0.00000000E+00  0.00000000E+00  0.00000000E+00
  0.00000000E+00  0.00000000E+00  0.00000000E+00
  0.00000000E+00  0.00000000E+00  0.00000000E+00
  0.00000000E+00  0.00000000E+00  0.00000000E+00
  0.00000000E+00  0.00000000E+00  0.00000000E+00
  0.00000000E+00  0.00000000E+00  0.00000000E+00
  0.00000000E+00  0.00000000E+00  0.00000000E+00
  0.00000000E+00  0.00000000E+00  0.00000000E+00
  0.00000000E+00  0.00000000E+00  0.00000000E+00
  0.00000000E+00  0.00000000E+00  0.00000000E+00
  0.00000000E+00  0.00000000E+00  0.00000000E+00
  0.00000000E+00  0.00000000E+00  0.00000000E+00
  0.00000000E+00  0.00000000E+00  0.00000000E+00
  0.00000000E+00  0.00000000E+00  0.00000000E+00
  0.00000000E+00  0.00000000E+00  0.00000000E+00
  0.00000000E+00  0.00000000E+00  0.00000000E+00
  0.00000000E+00  0.00000000E+00  0.00000000E+00
  0.00000000E+00  0.00000000E+00  0.00000000E+00
  0.00000000E+00  0.00000000E+00  0.00000000E+00
  0.00000000E+00  0.00000000E+00  0.00000000E+00
  0.00000000E+00  0.00000000E+00  0.00000000E+00
  0.00000000E+00  0.00000000E+00  0.00000000E+00
  0.00000000E+00  0.00000000E+00  0.00000000E+00
  0.00000000E+00  0.00000000E+00  0.00000000E+00
  0.00000000E+00  0.00000000E+00  0.00000000E+00
  0.00000000E+00  0.00000000E+00  0.00000000E+00
  0.00000000E+00  0.00000000E+00  0.00000000E+00
  0.00000000E+00  0.00000000E+00  0.00000000E+00
  0.00000000E+00  0.00000000E+00  0.00000000E+00
  0.00000000E+00  0.00000000E+00  0.00000000E+00
  0.00000000E+00  0.00000000E+00  0.00000000E+00
  0.00000000E+00  0.00000000E+00  0.00000000E+00
  0.00000000E+00  0.00000000E+00  0.00000000E+00
  0.00000000E+00  0.00000000E+00  0.00000000E+00
  0.00000000E+00  0.00000000E+00  0.00000000E+00
  0.00000000E+00  0.00000000E+00  0.00000000E+00
  0.00000000E+00  0.00000000E+00  0.00000000E+00
  0.00000000E+00  0.00000000E+00  0.00000000E+00
  0.00000000E+00  0.00000000E+00  0.00000000E+00
  0.00000000E+00  0.00000000E+00  0.00000000E+00
  0.00000000E+00  0.00000000E+00  0.00000000E+00
  0.00000000E+00  0.00000000E+00  0.00000000E+00
  0.00000000E+00  0.00000000E+00  0.00000000E+00
  0.00000000E+00  0.00000000E+00  0.00000000E+00
  0.00000000E+00  0.00000000E+00  0.00000000E+00
  0.00000000E+00  0.00000000E+00  0.00000000E+00
  0.00000000E+00  0.00000000E+00  0.00000000E+00
  0.00000000E+00  0.00000000E+00  0.00000000E+00
  0.00000000E+00  0.00000000E+00  0.00000000E+00
  0.00000000E+00  0.00000000E+00  0.00000000E+00
  0.00000000E+00  0.00000000E+00  0.00000000E+00
  0.00000000E+00  0.00000000E+00  0.00000000E+00
  0.00000000E+00  0.00000000E+00  0.00000000E+00
  0.00000000E+00  0.00000000E+00  0.00000000E+00
  0.00000000E+00  0.00000000E+00  0.00000000E+00
  0.00000000E+00  0.00000000E+00  0.00000000E+00
  0.00000000E+00  0.00000000E+00  0.00000000E+00
  0.00000000E+00  0.00000000E+00  0.00000000E+00
  0.00000000E+00  0.00000000E+00  0.00000000E+00
  0.00000000E+00  0.00000000E+00  0.00000000E+00
  0.00000000E+00  0.00000000E+00  0.00000000E+00
  0.00000000E+00  0.00000000E+00  0.00000000E+00
  0.00000000E+00  0.00000000E+00  0.00000000E+00
  0.00000000E+00  0.00000000E+00  0.00000000E+00
  0.00000000E+00  0.00000000E+00  0.00000000E+00
  0.00000000E+00  0.00000000E+00  0.00000000E+00
  0.00000000E+00  0.00000000E+00  0.00000000E+00
  0.00000000E+00  0.00000000E+00  0.00000000E+00
  0.00000000E+00  0.00000000E+00  0.00000000E+00
  0.00000000E+00  0.00000000E+00  0.00000000E+00
  0.00000000E+00  0.00000000E+00  0.00000000E+00
  0.00000000E+00  0.00000000E+00  0.00000000E+00
  0.00000000E+00  0.00000000E+00  0.00000000E+00
  0.00000000E+00  0.00000000E+00  0.00000000E+00
  0.00000000E+00  0.00000000E+00  0.00000000E+00
