10.56                                   
   1.00000000000000     
    10.5600004195999997    0.0000000000000000    0.0000000000000000
     5.2800002097999998    9.1452286273999999    0.0000000000000000
     0.0000000000000000    0.0000000000000000   22.0000000000000000
   Pt   Cu   Ni   Fe   Co   H 
    32    13    10    13    12     1
Selective dynamics
Direct
  0.7901408544281980  0.8770196391654694  0.3158137279716717   T   T   T
  0.0445615393649469  0.8814183586733155  0.3163085908486247   T   T   T
  0.2872922845658648  0.3789517930665348  0.3201641871717723   T   T   T
  0.8755643471557831  0.9598238800743927  0.4239560658346926   T   T   T
  0.1242177049201385  0.4584698202304984  0.4260356119946430   T   T   T
  0.1262631857398058  0.9624585948683279  0.4215395800427506   T   T   T
  0.8763407609721050  0.4593486962985083  0.4230918505027948   T   T   T
  0.3757453790129386  0.9598077216234070  0.4188274320946597   T   T   T
  0.8752078120186821  0.2109762030436245  0.4220917481292633   T   T   T
  0.1266983119026901  0.2096526721078883  0.4230819175031141   T   T   T
  0.6241989323648195  0.9597351321320419  0.4244040772843262   T   T   T
  0.8761546361512468  0.7083574201568331  0.4250099709328801   T   T   T
  0.3745932830072622  0.2093863649993214  0.4268882934347960   T   T   T
  0.3778122411067356  0.7122722483161387  0.4285617968887869   T   T   T
  0.6284269362441283  0.4598625909591165  0.4229827456027810   T   T   T
  0.1222590935305472  0.7119724431241277  0.4283029442205317   T   T   T
  0.6264854159995638  0.2090389531309513  0.4245818522645213   T   T   T
  0.5534546406874602  0.3714041792872476  0.3176793104448072   T   T   T
  0.5377650629047742  0.1219951431710622  0.3148747837297738   T   T   T
  0.5474557691032089  0.1224145471164988  0.0383540260045478   F   F   F
  0.1236064448242544  0.4619868652207941  0.1274066645318186   F   F   F
  0.0400846163387225  0.1349777282764848  0.3133225047743356   T   T   T
  0.0323512895519684  0.1348251109224066  0.0344153389136395   F   F   F
  0.1267130615797001  0.9548495891329765  0.1316270848000016   F   F   F
  0.3769422982198615  0.4578333068393854  0.4295338549385817   T   T   T
  0.4577929944478427  0.5456247416986244  0.2200856014136363   F   F   F
  0.6242710467048359  0.7108295867084241  0.4233586443038080   T   T   T
  0.9641386328546346  0.7927262172516194  0.2176139731681843   F   F   F
  0.7901848385408642  0.6231930226662314  0.3185818354076679   T   T   T
  0.2934790232014574  0.6317135287704444  0.3201690152659789   T   T   T
  0.2112359165491497  0.2837402313404738  0.2226962608636356   F   F   F
  0.7170982237511581  0.5368531721328651  0.2205881042545457   F   F   F
  0.0414014631248720  0.6253586493971830  0.3209877456919959   T   T   T
  0.7972000438328166  0.8697589236827383  0.0374023497136378   F   F   F
  0.0440625835034183  0.8722191461787219  0.0345072269909110   F   F   F
  0.0392610792287442  0.6311846045166689  0.0351220357090938   F   F   F
  0.6257475188796491  0.2142350187539250  0.1326781676272759   F   F   F
  0.3760834871882253  0.9610439443107381  0.1305574189681806   F   F   F
  0.0403211752471847  0.3796389186486894  0.3205355199918717   T   T   T
  0.0396170568831593  0.3768031419767439  0.0334889225727295   F   F   F
  0.8676193552394906  0.2152196349365170  0.1309720674090897   F   F   F
  0.9596267895245916  0.5454269423352969  0.2247318812727244   F   F   F
  0.2923745859118855  0.1201365285627837  0.3194566838103220   T   T   T
  0.5399335835260182  0.6315948933963875  0.3209697416820849   T   T   T
  0.2917831490269052  0.1260602338629297  0.0372542039999999   F   F   F
  0.5454515139348999  0.6259782464101775  0.0420624231136344   F   F   F
  0.3067879116385299  0.3735680389951384  0.0391298778454541   F   F   F
  0.6278828336866127  0.9518576864791655  0.1326303949409109   F   F   F
  0.7014205873461066  0.7982020760125437  0.2228083038681845   F   F   F
  0.8663351732921925  0.7104737684778044  0.1283473372272752   F   F   F
  0.6246753788169244  0.4577386687586937  0.1281447755045448   F   F   F
  0.3008975553517117  0.8757735047196646  0.3163051106442245   T   T   T
  0.3061509070593971  0.8669645173489897  0.0394945869454517   F   F   F
  0.6189298912310122  0.7160352078547945  0.1315782563727268   F   F   F
  0.2158013217278736  0.0346202722424493  0.2239695528954542   F   F   F
  0.5413003481162377  0.3854934694292353  0.0392421232909115   F   F   F
  0.3793596896688101  0.2077414937564157  0.1304859276181816   F   F   F
  0.1397005988927233  0.7004273062357669  0.1260118729227244   F   F   F
  0.7032928047068907  0.0430698299351278  0.2223786639500034   F   F   F
  0.7943935861879696  0.1268313251632693  0.3230512738903173   T   T   T
  0.5392352538254344  0.8737329832746769  0.3177703970089428   T   T   T
  0.7886637734805362  0.1316311679178028  0.0356870601590913   F   F   F
  0.5500230713442207  0.8647745424215145  0.0409676415136389   F   F   F
  0.2133428810521139  0.5401467028500520  0.2246093103863629   F   F   F
  0.9628013650069889  0.2896499814519231  0.2215883351272723   F   F   F
  0.8674074857836018  0.9664102647932040  0.1274066662954567   F   F   F
  0.7175321873646183  0.2868729996907575  0.2245318191636372   F   F   F
  0.4591571903798268  0.2930458401412253  0.2237691903681807   F   F   F
  0.8738730802821166  0.4568980253572903  0.1267729113318197   F   F   F
  0.1172650635095778  0.2104917527411558  0.1300894581727263   F   F   F
  0.7847808401012983  0.6256565767374056  0.0430916531090944   F   F   F
  0.3044675991730514  0.6228429328419551  0.0413873785499987   F   F   F
  0.3774641631786082  0.7058247950696810  0.1277445443409064   F   F   F
  0.3790290951972111  0.4600384977577221  0.1289947120409067   F   F   F
  0.7954427261618885  0.3705043078374468  0.3189330513051576   T   T   T
  0.7878239818798747  0.3875206431014675  0.0411156729818174   F   F   F
  0.9438556562023948  0.0510421196689848  0.2234485127000028   F   F   F
  0.4570233967922803  0.8026344196806434  0.2250269443545463   F   F   F
  0.2162964734646451  0.7953313450368995  0.2247401188045473   F   F   F
  0.4610885657498471  0.0339352508881134  0.2216139020181842   F   F   F
  0.2906735999526607  0.6285599577373052  0.4744287373735027   T   T   T
 
  0.00000000E+00  0.00000000E+00  0.00000000E+00
  0.00000000E+00  0.00000000E+00  0.00000000E+00
  0.00000000E+00  0.00000000E+00  0.00000000E+00
  0.00000000E+00  0.00000000E+00  0.00000000E+00
  0.00000000E+00  0.00000000E+00  0.00000000E+00
  0.00000000E+00  0.00000000E+00  0.00000000E+00
  0.00000000E+00  0.00000000E+00  0.00000000E+00
  0.00000000E+00  0.00000000E+00  0.00000000E+00
  0.00000000E+00  0.00000000E+00  0.00000000E+00
  0.00000000E+00  0.00000000E+00  0.00000000E+00
  0.00000000E+00  0.00000000E+00  0.00000000E+00
  0.00000000E+00  0.00000000E+00  0.00000000E+00
  0.00000000E+00  0.00000000E+00  0.00000000E+00
  0.00000000E+00  0.00000000E+00  0.00000000E+00
  0.00000000E+00  0.00000000E+00  0.00000000E+00
  0.00000000E+00  0.00000000E+00  0.00000000E+00
  0.00000000E+00  0.00000000E+00  0.00000000E+00
  0.00000000E+00  0.00000000E+00  0.00000000E+00
  0.00000000E+00  0.00000000E+00  0.00000000E+00
  0.00000000E+00  0.00000000E+00  0.00000000E+00
  0.00000000E+00  0.00000000E+00  0.00000000E+00
  0.00000000E+00  0.00000000E+00  0.00000000E+00
  0.00000000E+00  0.00000000E+00  0.00000000E+00
  0.00000000E+00  0.00000000E+00  0.00000000E+00
  0.00000000E+00  0.00000000E+00  0.00000000E+00
  0.00000000E+00  0.00000000E+00  0.00000000E+00
  0.00000000E+00  0.00000000E+00  0.00000000E+00
  0.00000000E+00  0.00000000E+00  0.00000000E+00
  0.00000000E+00  0.00000000E+00  0.00000000E+00
  0.00000000E+00  0.00000000E+00  0.00000000E+00
  0.00000000E+00  0.00000000E+00  0.00000000E+00
  0.00000000E+00  0.00000000E+00  0.00000000E+00
  0.00000000E+00  0.00000000E+00  0.00000000E+00
  0.00000000E+00  0.00000000E+00  0.00000000E+00
  0.00000000E+00  0.00000000E+00  0.00000000E+00
  0.00000000E+00  0.00000000E+00  0.00000000E+00
  0.00000000E+00  0.00000000E+00  0.00000000E+00
  0.00000000E+00  0.00000000E+00  0.00000000E+00
  0.00000000E+00  0.00000000E+00  0.00000000E+00
  0.00000000E+00  0.00000000E+00  0.00000000E+00
  0.00000000E+00  0.00000000E+00  0.00000000E+00
  0.00000000E+00  0.00000000E+00  0.00000000E+00
  0.00000000E+00  0.00000000E+00  0.00000000E+00
  0.00000000E+00  0.00000000E+00  0.00000000E+00
  0.00000000E+00  0.00000000E+00  0.00000000E+00
  0.00000000E+00  0.00000000E+00  0.00000000E+00
  0.00000000E+00  0.00000000E+00  0.00000000E+00
  0.00000000E+00  0.00000000E+00  0.00000000E+00
  0.00000000E+00  0.00000000E+00  0.00000000E+00
  0.00000000E+00  0.00000000E+00  0.00000000E+00
  0.00000000E+00  0.00000000E+00  0.00000000E+00
  0.00000000E+00  0.00000000E+00  0.00000000E+00
  0.00000000E+00  0.00000000E+00  0.00000000E+00
  0.00000000E+00  0.00000000E+00  0.00000000E+00
  0.00000000E+00  0.00000000E+00  0.00000000E+00
  0.00000000E+00  0.00000000E+00  0.00000000E+00
  0.00000000E+00  0.00000000E+00  0.00000000E+00
  0.00000000E+00  0.00000000E+00  0.00000000E+00
  0.00000000E+00  0.00000000E+00  0.00000000E+00
  0.00000000E+00  0.00000000E+00  0.00000000E+00
  0.00000000E+00  0.00000000E+00  0.00000000E+00
  0.00000000E+00  0.00000000E+00  0.00000000E+00
  0.00000000E+00  0.00000000E+00  0.00000000E+00
  0.00000000E+00  0.00000000E+00  0.00000000E+00
  0.00000000E+00  0.00000000E+00  0.00000000E+00
  0.00000000E+00  0.00000000E+00  0.00000000E+00
  0.00000000E+00  0.00000000E+00  0.00000000E+00
  0.00000000E+00  0.00000000E+00  0.00000000E+00
  0.00000000E+00  0.00000000E+00  0.00000000E+00
  0.00000000E+00  0.00000000E+00  0.00000000E+00
  0.00000000E+00  0.00000000E+00  0.00000000E+00
  0.00000000E+00  0.00000000E+00  0.00000000E+00
  0.00000000E+00  0.00000000E+00  0.00000000E+00
  0.00000000E+00  0.00000000E+00  0.00000000E+00
  0.00000000E+00  0.00000000E+00  0.00000000E+00
  0.00000000E+00  0.00000000E+00  0.00000000E+00
  0.00000000E+00  0.00000000E+00  0.00000000E+00
  0.00000000E+00  0.00000000E+00  0.00000000E+00
  0.00000000E+00  0.00000000E+00  0.00000000E+00
  0.00000000E+00  0.00000000E+00  0.00000000E+00
  0.00000000E+00  0.00000000E+00  0.00000000E+00
