Pt111\(1\1\1)\(2)                       
   1.00000000000000     
    10.5600004195999997    0.0000000000000000    0.0000000000000000
    -5.2800002097999998    9.1452286273999999    0.0000000000000000
     0.0000000000000000    0.0000000000000000   20.0000000000000000
   Pt
    64
Direct
 -0.0000015553782398  0.0000015553782398  0.0557922949174078
  0.3333317286539393  0.1666682603460634  0.1775239735958251
  0.1666682573460596  0.3333317136539416  0.2972960324041765
  0.0000015553782398 -0.0000015553782398  0.4190277350825887
  0.9999984416217634  0.2500015483782427  0.0557922949174078
  0.3333317206539386  0.4166682673460604  0.1775239735958251
  0.1666682613460599  0.0833317196539421  0.2972960324041765
  0.0000015523782431  0.2499984376217632  0.4190277350825887
  0.2499984416217635  0.2500015483782427  0.0557922949174078
  0.0833317206539386  0.4166682673460604  0.1775239735958251
  0.4166682723460644  0.0833317196539421  0.2972960324041765
  0.2500015523782431  0.2499984376217632  0.4190277350825887
  0.2499984446217602  0.0000015553782398  0.0557922949174078
  0.0833317236539424  0.1666682603460634  0.1775239735958251
  0.4166682573460596  0.3333317136539416  0.2972960324041765
  0.2500015553782398 -0.0000015553782398  0.4190277350825887
  0.4999984446217602  0.0000015553782398  0.0557922949174078
  0.8333316836539392  0.1666682603460634  0.1775239735958251
  0.6666682803460579  0.3333317136539416  0.2972960324041765
  0.5000015553782399 -0.0000015553782398  0.4190277350825887
  0.4999984296217626  0.2500015483782427  0.0557922949174078
  0.8333316756539385  0.4166682673460604  0.1775239735958251
  0.6666682953460626  0.0833317196539421  0.2972960324041765
  0.5000015403782422  0.2499984376217632  0.4190277350825887
  0.7499984076217606  0.2500015483782427  0.0557922949174078
  0.5833316756539385  0.4166682673460604  0.1775239735958251
  0.9166682723460643  0.0833317196539421  0.2972960324041765
  0.7500015183782404  0.2499984376217632  0.4190277350825887
  0.7499984216217618  0.0000015553782398  0.0557922949174078
  0.5833316616539374  0.1666682603460634  0.1775239735958251
  0.9166682573460595  0.3333317136539416  0.2972960324041765
  0.7500015323782415 -0.0000015553782398  0.4190277350825887
  0.9999984376217631  0.5000015423782423  0.0557922949174078
  0.3333317066539375  0.6666682603460633  0.1775239735958251
  0.1666682513460591  0.8333316996539405  0.2972960324041765
  0.0000015483782428  0.4999984316217627  0.4190277350825887
  0.9999984326217591  0.7500015093782432  0.0557922949174078
  0.3333317276539356  0.9166682803460579  0.1775239735958251
  0.1666682643460637  0.5833316806539354  0.2972960324041765
  0.0000015433782388  0.7499983986217634  0.4190277350825887
  0.2499984326217592  0.7500015093782432  0.0557922949174078
  0.0833317276539356  0.9166682803460579  0.1775239735958251
  0.4166682753460610  0.5833316806539354  0.2972960324041765
  0.2500015433782388  0.7499983986217634  0.4190277350825887
  0.2499984376217632  0.5000015423782423  0.0557922949174078
  0.0833317066539375  0.6666682603460633  0.1775239735958251
  0.4166682733460609  0.8333316996539405  0.2972960324041765
  0.2500015483782427  0.4999984316217627  0.4190277350825887
  0.4999984376217632  0.5000015423782423  0.0557922949174078
  0.8333317066539375  0.6666682603460633  0.1775239735958251
  0.6666682963460592  0.8333316996539405  0.2972960324041765
  0.5000015483782428  0.4999984316217627  0.4190277350825887
  0.4999984326217592  0.7500015093782432  0.0557922949174078
  0.8333317046539374  0.9166682803460579  0.1775239735958251
  0.6666682983460593  0.5833316806539354  0.2972960324041765
  0.5000015433782389  0.7499983986217634  0.4190277350825887
  0.7499984106217573  0.7500015093782432  0.0557922949174078
  0.5833316826539355  0.9166682803460579  0.1775239735958251
  0.9166682753460610  0.5833316806539354  0.2972960324041765
  0.7500015213782371  0.7499983986217634  0.4190277350825887
  0.7499983926217629  0.5000015423782423  0.0557922949174078
  0.5833316616539374  0.6666682603460633  0.1775239735958251
  0.9166682733460608  0.8333316996539405  0.2972960324041765
  0.7500015033782427  0.4999984316217627  0.4190277350825887
 
  0.00000000E+00  0.00000000E+00  0.00000000E+00
  0.00000000E+00  0.00000000E+00  0.00000000E+00
  0.00000000E+00  0.00000000E+00  0.00000000E+00
  0.00000000E+00  0.00000000E+00  0.00000000E+00
  0.00000000E+00  0.00000000E+00  0.00000000E+00
  0.00000000E+00  0.00000000E+00  0.00000000E+00
  0.00000000E+00  0.00000000E+00  0.00000000E+00
  0.00000000E+00  0.00000000E+00  0.00000000E+00
  0.00000000E+00  0.00000000E+00  0.00000000E+00
  0.00000000E+00  0.00000000E+00  0.00000000E+00
  0.00000000E+00  0.00000000E+00  0.00000000E+00
  0.00000000E+00  0.00000000E+00  0.00000000E+00
  0.00000000E+00  0.00000000E+00  0.00000000E+00
  0.00000000E+00  0.00000000E+00  0.00000000E+00
  0.00000000E+00  0.00000000E+00  0.00000000E+00
  0.00000000E+00  0.00000000E+00  0.00000000E+00
  0.00000000E+00  0.00000000E+00  0.00000000E+00
  0.00000000E+00  0.00000000E+00  0.00000000E+00
  0.00000000E+00  0.00000000E+00  0.00000000E+00
  0.00000000E+00  0.00000000E+00  0.00000000E+00
  0.00000000E+00  0.00000000E+00  0.00000000E+00
  0.00000000E+00  0.00000000E+00  0.00000000E+00
  0.00000000E+00  0.00000000E+00  0.00000000E+00
  0.00000000E+00  0.00000000E+00  0.00000000E+00
  0.00000000E+00  0.00000000E+00  0.00000000E+00
  0.00000000E+00  0.00000000E+00  0.00000000E+00
  0.00000000E+00  0.00000000E+00  0.00000000E+00
  0.00000000E+00  0.00000000E+00  0.00000000E+00
  0.00000000E+00  0.00000000E+00  0.00000000E+00
  0.00000000E+00  0.00000000E+00  0.00000000E+00
  0.00000000E+00  0.00000000E+00  0.00000000E+00
  0.00000000E+00  0.00000000E+00  0.00000000E+00
  0.00000000E+00  0.00000000E+00  0.00000000E+00
  0.00000000E+00  0.00000000E+00  0.00000000E+00
  0.00000000E+00  0.00000000E+00  0.00000000E+00
  0.00000000E+00  0.00000000E+00  0.00000000E+00
  0.00000000E+00  0.00000000E+00  0.00000000E+00
  0.00000000E+00  0.00000000E+00  0.00000000E+00
  0.00000000E+00  0.00000000E+00  0.00000000E+00
  0.00000000E+00  0.00000000E+00  0.00000000E+00
  0.00000000E+00  0.00000000E+00  0.00000000E+00
  0.00000000E+00  0.00000000E+00  0.00000000E+00
  0.00000000E+00  0.00000000E+00  0.00000000E+00
  0.00000000E+00  0.00000000E+00  0.00000000E+00
  0.00000000E+00  0.00000000E+00  0.00000000E+00
  0.00000000E+00  0.00000000E+00  0.00000000E+00
  0.00000000E+00  0.00000000E+00  0.00000000E+00
  0.00000000E+00  0.00000000E+00  0.00000000E+00
  0.00000000E+00  0.00000000E+00  0.00000000E+00
  0.00000000E+00  0.00000000E+00  0.00000000E+00
  0.00000000E+00  0.00000000E+00  0.00000000E+00
  0.00000000E+00  0.00000000E+00  0.00000000E+00
  0.00000000E+00  0.00000000E+00  0.00000000E+00
  0.00000000E+00  0.00000000E+00  0.00000000E+00
  0.00000000E+00  0.00000000E+00  0.00000000E+00
  0.00000000E+00  0.00000000E+00  0.00000000E+00
  0.00000000E+00  0.00000000E+00  0.00000000E+00
  0.00000000E+00  0.00000000E+00  0.00000000E+00
  0.00000000E+00  0.00000000E+00  0.00000000E+00
  0.00000000E+00  0.00000000E+00  0.00000000E+00
  0.00000000E+00  0.00000000E+00  0.00000000E+00
  0.00000000E+00  0.00000000E+00  0.00000000E+00
  0.00000000E+00  0.00000000E+00  0.00000000E+00
  0.00000000E+00  0.00000000E+00  0.00000000E+00
