Pt   H                                  
   1.00000000000000     
    11.2227001190000006    0.0000000000000000    0.0000000000000000
     5.6113500595000003    9.7191434021000003    0.0000000000000000
     0.0000000000000000    0.0000000000000000   22.0000000000000000
   Pt   H 
    80     2
Direct
  0.7851755680172328  0.8690739953985284  0.3270613719396490
  0.0353834424388365  0.8688267838749612  0.3273144897342969
  0.0357473181169363  0.6187438333049710  0.3269461771606764
  0.7855780883815110  0.8685385132870906  0.0231208008413054
  0.0360592245418117  0.8684180854286516  0.0232214930143342
  0.0357518024296336  0.6185723154538653  0.0230039366680369
  0.6187216193131186  0.2022476465408185  0.1265029372952911
  0.3686506842274409  0.9516466206104895  0.1266964346236565
  0.0343897280135462  0.3689624406946759  0.3270818906957149
  0.0354217215798680  0.3689473243510236  0.0233429667674966
  0.8686081661552989  0.2021532141928852  0.1267385335765795
  0.9520386314306644  0.5352870043374585  0.2267698387112783
  0.2850869315425585  0.1182296608047553  0.3271316035841942
  0.5349850806743565  0.6187567601717060  0.3291541587227703
  0.2857689922607203  0.3695976966684086  0.3270656598453064
  0.2861359891800728  0.1182226687742815  0.0233649846143193
  0.5356982567941310  0.6185351918300418  0.0233137049676768
  0.2856163834718919  0.3685683167606746  0.0231233178406347
  0.6185772312730170  0.9521095488275824  0.1263715188433361
  0.7018319371851813  0.7853358002811616  0.2267979131323195
  0.8689028687530636  0.7018538876689615  0.1263525845993409
  0.6186095116301730  0.4521415816330521  0.1268358253232133
  0.2872806582155467  0.8651845780775649  0.3292911242471935
  0.2855264582842093  0.8688220221795553  0.0232434138896852
  0.6186364511557240  0.7019057505803092  0.1266020970854637
  0.2017591488183786  0.0349866967195128  0.2271862069266246
  0.8687174633777426  0.9528622402529610  0.4306073600306665
  0.1184114983979638  0.4525088918676050  0.4302626677418807
  0.1184352673027459  0.9524175947446625  0.4309054047422630
  0.8706910498458362  0.4518049940799911  0.4307050390104881
  0.3676239784267614  0.9549131703821968  0.4307466646549281
  0.8680784738496041  0.2027191781456532  0.4309301509608682
  0.1180701928915552  0.2023861420898583  0.4305179071985513
  0.6185665387484877  0.9531055936906333  0.4304116474250173
  0.8689753843981032  0.7026831054913495  0.4303924321345858
  0.3683754068807336  0.2025612544869063  0.4302951831653217
  0.3681856011546609  0.7041106891479816  0.4385911204745503
  0.6192433307870577  0.4530721277673915  0.4390803259725838
  0.1166679321012356  0.7035811630834276  0.4306483396328925
  0.6193443532550592  0.2008770928656302  0.4306840436205603
  0.5351965474694311  0.3701894851124323  0.3289278712107560
  0.5356750883927993  0.3687851152436954  0.0232168226329504
  0.5349458941706667  0.1195428273188952  0.3269665972507878
  0.5357867417030022  0.1185305778565564  0.0230092840757307
  0.8684575902784595  0.4518670535805294  0.1266950952933818
  0.1189289327916355  0.4518975794933450  0.1263286439143202
  0.0348506738566054  0.1187428489956075  0.3273687335407333
  0.0356114879981523  0.1183900789628539  0.0232568390311877
  0.1188551171054488  0.9518473188838487  0.1267391546885434
  0.3660885882920089  0.4503759292765432  0.4324043907414101
  0.4519394059448776  0.5354959228890650  0.2278084976909354
  0.6210230922815091  0.7052978125994175  0.4322202090860824
  0.3686567914253527  0.2022296176270007  0.1263127059292659
  0.1185729768835904  0.2018451275121116  0.1262134477530692
  0.9520683468488538  0.7854176431104785  0.2267474218314541
  0.7846824056636260  0.6191851565619886  0.3274339478043413
  0.2863100181192192  0.6190088110227535  0.3288707397306851
  0.7855949430845279  0.6184306612603154  0.0231910326397122
  0.2859744084500837  0.6185090177307411  0.0232338265021576
  0.3689348789521799  0.7018369857311191  0.1268290821762067
  0.3690670497925422  0.4522758853940682  0.1265813798775832
  0.2015490236427898  0.2850474232061775  0.2268953719312036
  0.7812170916660779  0.3711853691213629  0.3293649371201606
  0.7858696458503424  0.3684918362832920  0.0232372077218923
  0.9517472658682281  0.0353656777049551  0.2270333876816054
  0.4516318262566973  0.7855625438799295  0.2273158729352905
  0.7020379913782484  0.5351695704314181  0.2273323680328602
  0.2025652370708192  0.7851295156816628  0.2274801263029698
  0.4516492279538489  0.0356577291557568  0.2267811679272867
  0.1189735705005851  0.7020129315781313  0.1264825637609674
  0.7018517245971849  0.0356282470931841  0.2267452779936188
  0.7849384631508715  0.1192131694667092  0.3273456039642304
  0.5353478485808072  0.8685096309802223  0.3274382283043271
  0.7855310687088169  0.1189575813900484  0.0232567508864533
  0.5355702576801096  0.8684870070136518  0.0231850157865916
  0.2021412848526138  0.5354280462309042  0.2266709271511336
  0.9514222863878482  0.2853166126011818  0.2271809783202638
  0.8688074124456884  0.9519983632403303  0.1263587038566700
  0.7016185301624441  0.2861051575417906  0.2275128184624020
  0.4518691987053260  0.2856985186514542  0.2266761845166137
  0.4603013385726824  0.5430504555685042  0.4888722218667486
  0.5274590711604211  0.6099340594660952  0.4893226643868764
 
  0.00000000E+00  0.00000000E+00  0.00000000E+00
  0.00000000E+00  0.00000000E+00  0.00000000E+00
  0.00000000E+00  0.00000000E+00  0.00000000E+00
  0.00000000E+00  0.00000000E+00  0.00000000E+00
  0.00000000E+00  0.00000000E+00  0.00000000E+00
  0.00000000E+00  0.00000000E+00  0.00000000E+00
  0.00000000E+00  0.00000000E+00  0.00000000E+00
  0.00000000E+00  0.00000000E+00  0.00000000E+00
  0.00000000E+00  0.00000000E+00  0.00000000E+00
  0.00000000E+00  0.00000000E+00  0.00000000E+00
  0.00000000E+00  0.00000000E+00  0.00000000E+00
  0.00000000E+00  0.00000000E+00  0.00000000E+00
  0.00000000E+00  0.00000000E+00  0.00000000E+00
  0.00000000E+00  0.00000000E+00  0.00000000E+00
  0.00000000E+00  0.00000000E+00  0.00000000E+00
  0.00000000E+00  0.00000000E+00  0.00000000E+00
  0.00000000E+00  0.00000000E+00  0.00000000E+00
  0.00000000E+00  0.00000000E+00  0.00000000E+00
  0.00000000E+00  0.00000000E+00  0.00000000E+00
  0.00000000E+00  0.00000000E+00  0.00000000E+00
  0.00000000E+00  0.00000000E+00  0.00000000E+00
  0.00000000E+00  0.00000000E+00  0.00000000E+00
  0.00000000E+00  0.00000000E+00  0.00000000E+00
  0.00000000E+00  0.00000000E+00  0.00000000E+00
  0.00000000E+00  0.00000000E+00  0.00000000E+00
  0.00000000E+00  0.00000000E+00  0.00000000E+00
  0.00000000E+00  0.00000000E+00  0.00000000E+00
  0.00000000E+00  0.00000000E+00  0.00000000E+00
  0.00000000E+00  0.00000000E+00  0.00000000E+00
  0.00000000E+00  0.00000000E+00  0.00000000E+00
  0.00000000E+00  0.00000000E+00  0.00000000E+00
  0.00000000E+00  0.00000000E+00  0.00000000E+00
  0.00000000E+00  0.00000000E+00  0.00000000E+00
  0.00000000E+00  0.00000000E+00  0.00000000E+00
  0.00000000E+00  0.00000000E+00  0.00000000E+00
  0.00000000E+00  0.00000000E+00  0.00000000E+00
  0.00000000E+00  0.00000000E+00  0.00000000E+00
  0.00000000E+00  0.00000000E+00  0.00000000E+00
  0.00000000E+00  0.00000000E+00  0.00000000E+00
  0.00000000E+00  0.00000000E+00  0.00000000E+00
  0.00000000E+00  0.00000000E+00  0.00000000E+00
  0.00000000E+00  0.00000000E+00  0.00000000E+00
  0.00000000E+00  0.00000000E+00  0.00000000E+00
  0.00000000E+00  0.00000000E+00  0.00000000E+00
  0.00000000E+00  0.00000000E+00  0.00000000E+00
  0.00000000E+00  0.00000000E+00  0.00000000E+00
  0.00000000E+00  0.00000000E+00  0.00000000E+00
  0.00000000E+00  0.00000000E+00  0.00000000E+00
  0.00000000E+00  0.00000000E+00  0.00000000E+00
  0.00000000E+00  0.00000000E+00  0.00000000E+00
  0.00000000E+00  0.00000000E+00  0.00000000E+00
  0.00000000E+00  0.00000000E+00  0.00000000E+00
  0.00000000E+00  0.00000000E+00  0.00000000E+00
  0.00000000E+00  0.00000000E+00  0.00000000E+00
  0.00000000E+00  0.00000000E+00  0.00000000E+00
  0.00000000E+00  0.00000000E+00  0.00000000E+00
  0.00000000E+00  0.00000000E+00  0.00000000E+00
  0.00000000E+00  0.00000000E+00  0.00000000E+00
  0.00000000E+00  0.00000000E+00  0.00000000E+00
  0.00000000E+00  0.00000000E+00  0.00000000E+00
  0.00000000E+00  0.00000000E+00  0.00000000E+00
  0.00000000E+00  0.00000000E+00  0.00000000E+00
  0.00000000E+00  0.00000000E+00  0.00000000E+00
  0.00000000E+00  0.00000000E+00  0.00000000E+00
  0.00000000E+00  0.00000000E+00  0.00000000E+00
  0.00000000E+00  0.00000000E+00  0.00000000E+00
  0.00000000E+00  0.00000000E+00  0.00000000E+00
  0.00000000E+00  0.00000000E+00  0.00000000E+00
  0.00000000E+00  0.00000000E+00  0.00000000E+00
  0.00000000E+00  0.00000000E+00  0.00000000E+00
  0.00000000E+00  0.00000000E+00  0.00000000E+00
  0.00000000E+00  0.00000000E+00  0.00000000E+00
  0.00000000E+00  0.00000000E+00  0.00000000E+00
  0.00000000E+00  0.00000000E+00  0.00000000E+00
  0.00000000E+00  0.00000000E+00  0.00000000E+00
  0.00000000E+00  0.00000000E+00  0.00000000E+00
  0.00000000E+00  0.00000000E+00  0.00000000E+00
  0.00000000E+00  0.00000000E+00  0.00000000E+00
  0.00000000E+00  0.00000000E+00  0.00000000E+00
  0.00000000E+00  0.00000000E+00  0.00000000E+00
  0.00000000E+00  0.00000000E+00  0.00000000E+00
  0.00000000E+00  0.00000000E+00  0.00000000E+00
