Fe   Pt   H                             
   1.00000000000000     
    10.5600004195999997    0.0000000000000000    0.0000000000000000
     5.2800002097999998    9.1452286273999999    0.0000000000000000
     0.0000000000000000    0.0000000000000000   22.0000000000000000
   Fe   Pt   H 
    64    16     2
Selective dynamics
Direct
  0.7941982472806688  0.8589548566003746  0.3073445187295264   T   T   T
  0.0473709036782287  0.8595552159716369  0.3160768171069008   T   T   T
  0.0470241163604377  0.6140735713300532  0.3153020522115458   T   T   T
  0.8026267767292836  0.8615467289022831  0.0454892451863671   F   F   F
  0.0404195207448552  0.8617027190320172  0.0531321522045474   F   F   F
  0.0509400554688710  0.6062387638608655  0.0434550926181814   F   F   F
  0.6179624315601515  0.2089407032181825  0.1354205681000025   F   F   F
  0.3771081362849742  0.9520552039687331  0.1315154562954532   F   F   F
  0.0432095084526930  0.3692667794737700  0.3163485426093204   T   T   T
  0.0513505762289554  0.3533140917898123  0.0488741219272697   F   F   F
  0.8796363959013576  0.1964455081765166  0.1405242804454545   F   F   F
  0.9625708710528692  0.5361556811946874  0.2236187656652164   T   T   T
  0.2862257244291295  0.1241182192623115  0.3143573358417170   T   T   T
  0.5374413476584955  0.6116572751745351  0.3123203252621599   T   T   T
  0.2912924950638884  0.3731055688252675  0.3179494255512344   T   T   T
  0.2893256628225913  0.1234214636929067  0.0441537578181794   F   F   F
  0.5276420206625545  0.6272430854941717  0.0450746674136369   F   F   F
  0.2890943956913929  0.3689426548277837  0.0479302053681820   F   F   F
  0.6230886774246684  0.9589308993681485  0.1313536480500019   F   F   F
  0.7144390565542708  0.7772013144734861  0.2196774116912697   T   T   T
  0.8871502961281266  0.6953355374350920  0.1350361609363659   F   F   F
  0.6200488592634272  0.4538069531433777  0.1336872440681844   F   F   F
  0.2900223589600589  0.8577979666587476  0.3163120365477218   T   T   T
  0.2687421993710117  0.8846374397312431  0.0464864681272701   F   F   F
  0.6288621109649597  0.6995904720010202  0.1284261861000005   F   F   F
  0.2193154801501456  0.0218900953165855  0.2278959677958975   T   T   T
  0.5385651522937015  0.3674654915284224  0.3162987565261607   T   T   T
  0.5412157973262453  0.3693050226629708  0.0442518416318194   F   F   F
  0.5398149143041286  0.1219192526351282  0.3100800179527858   T   T   T
  0.5336944517523747  0.1355867285247427  0.0439851245909111   F   F   F
  0.8832888313795024  0.4470977980309314  0.1381582713954543   F   F   F
  0.1402232285351914  0.4469540011666240  0.1355590908681847   F   F   F
  0.0418243392838176  0.1164916628908491  0.3170854256679280   T   T   T
  0.0589967396284408  0.1018350567431128  0.0575243016954516   F   F   F
  0.1342935333655149  0.9375821956829213  0.1424705955181835   F   F   F
  0.4530069650586921  0.5337914882545056  0.2225826659381588   T   T   T
  0.3693613645044209  0.2161502974433560  0.1347813253954513   F   F   F
  0.1352238459015780  0.1985163722709657  0.1393178312181789   F   F   F
  0.9687435364502401  0.7761004564935142  0.2242414126980403   T   T   T
  0.7969260582799861  0.6092367748657598  0.3112885137160670   T   T   T
  0.2940174756355649  0.6137220354997475  0.3190178519644574   T   T   T
  0.8136378082480036  0.6035846078535201  0.0458125345909082   F   F   F
  0.2827328526180111  0.6136847731378765  0.0419772135318155   F   F   F
  0.3711045115008886  0.6919720544809493  0.1297637648999981   F   F   F
  0.3650899884529792  0.4537245194798061  0.1335287959590943   F   F   F
  0.2115446928245090  0.2897501331167677  0.2257182249696761   T   T   T
  0.7914008577664997  0.3659802386011402  0.3147430652319105   T   T   T
  0.7955667169556051  0.3623786591480993  0.0525784573590897   F   F   F
  0.9650576741726266  0.0264317338722899  0.2279811644742759   T   T   T
  0.4599048375763888  0.7741518023550906  0.2170055796185926   T   T   T
  0.7091768624744001  0.5425083783556698  0.2210971633316610   T   T   T
  0.2125025732711238  0.7628181476173532  0.2249548843989031   T   T   T
  0.4599288368743826  0.0350726025786467  0.2184877022535403   T   T   T
  0.1365430804763790  0.6811498989906610  0.1363537004090887   F   F   F
  0.7080193144481409  0.0311268976718770  0.2220752148748780   T   T   T
  0.7915629925453104  0.1157923012989186  0.3125533636839804   T   T   T
  0.5265986239534478  0.8713987051164823  0.3060332341432202   T   T   T
  0.7932310882983060  0.1130335594347969  0.0506874096272725   F   F   F
  0.5386045560987753  0.8807280389435022  0.0462069311772737   F   F   F
  0.2116777890867026  0.5362658808125261  0.2241390945177506   T   T   T
  0.9612158024815025  0.2844543090425731  0.2273551550605080   T   T   T
  0.8774744330611171  0.9478040731130761  0.1404896949318157   F   F   F
  0.7051169066812927  0.2898174638468175  0.2245246271994684   T   T   T
  0.4529709170536933  0.2918565595353629  0.2236046755232737   T   T   T
  0.8731717070333659  0.9499340616859130  0.4096004203546590   T   T   T
  0.1227519737214725  0.4504034944746511  0.4142440561977538   T   T   T
  0.1221538503713145  0.9512079859493936  0.4135950420475717   T   T   T
  0.8732104636736263  0.4506252554740352  0.4110814295480456   T   T   T
  0.3727842069422956  0.9514819028044970  0.4088897732928485   T   T   T
  0.8727616364431257  0.2005511903826501  0.4121556608895316   T   T   T
  0.1237105212741329  0.2005626445738123  0.4137641262891394   T   T   T
  0.6227586564816985  0.9492059249873689  0.4038296444240422   T   T   T
  0.8721240121331529  0.7002308898189289  0.4080319491473510   T   T   T
  0.3741547593379972  0.1999994237902760  0.4113876083074685   T   T   T
  0.3730991103598345  0.7004290255025489  0.4348132993629854   T   T   T
  0.6242168645815641  0.4492966402100000  0.4108389605027779   T   T   T
  0.1229371665532072  0.7003858503687175  0.4142975206661056   T   T   T
  0.6240459015148753  0.1987795480450421  0.4106005291214780   T   T   T
  0.3744390621737375  0.4479029644599818  0.4157286971682640   T   T   T
  0.6203681251237383  0.7014756646533479  0.4044527538296535   T   T   T
  0.2963245783343151  0.7050014784362453  0.4975188362093957   T   T   T
  0.4737181384645784  0.6888922286451263  0.4906406370220527   T   T   T
 
  0.00000000E+00  0.00000000E+00  0.00000000E+00
  0.00000000E+00  0.00000000E+00  0.00000000E+00
  0.00000000E+00  0.00000000E+00  0.00000000E+00
  0.00000000E+00  0.00000000E+00  0.00000000E+00
  0.00000000E+00  0.00000000E+00  0.00000000E+00
  0.00000000E+00  0.00000000E+00  0.00000000E+00
  0.00000000E+00  0.00000000E+00  0.00000000E+00
  0.00000000E+00  0.00000000E+00  0.00000000E+00
  0.00000000E+00  0.00000000E+00  0.00000000E+00
  0.00000000E+00  0.00000000E+00  0.00000000E+00
  0.00000000E+00  0.00000000E+00  0.00000000E+00
  0.00000000E+00  0.00000000E+00  0.00000000E+00
  0.00000000E+00  0.00000000E+00  0.00000000E+00
  0.00000000E+00  0.00000000E+00  0.00000000E+00
  0.00000000E+00  0.00000000E+00  0.00000000E+00
  0.00000000E+00  0.00000000E+00  0.00000000E+00
  0.00000000E+00  0.00000000E+00  0.00000000E+00
  0.00000000E+00  0.00000000E+00  0.00000000E+00
  0.00000000E+00  0.00000000E+00  0.00000000E+00
  0.00000000E+00  0.00000000E+00  0.00000000E+00
  0.00000000E+00  0.00000000E+00  0.00000000E+00
  0.00000000E+00  0.00000000E+00  0.00000000E+00
  0.00000000E+00  0.00000000E+00  0.00000000E+00
  0.00000000E+00  0.00000000E+00  0.00000000E+00
  0.00000000E+00  0.00000000E+00  0.00000000E+00
  0.00000000E+00  0.00000000E+00  0.00000000E+00
  0.00000000E+00  0.00000000E+00  0.00000000E+00
  0.00000000E+00  0.00000000E+00  0.00000000E+00
  0.00000000E+00  0.00000000E+00  0.00000000E+00
  0.00000000E+00  0.00000000E+00  0.00000000E+00
  0.00000000E+00  0.00000000E+00  0.00000000E+00
  0.00000000E+00  0.00000000E+00  0.00000000E+00
  0.00000000E+00  0.00000000E+00  0.00000000E+00
  0.00000000E+00  0.00000000E+00  0.00000000E+00
  0.00000000E+00  0.00000000E+00  0.00000000E+00
  0.00000000E+00  0.00000000E+00  0.00000000E+00
  0.00000000E+00  0.00000000E+00  0.00000000E+00
  0.00000000E+00  0.00000000E+00  0.00000000E+00
  0.00000000E+00  0.00000000E+00  0.00000000E+00
  0.00000000E+00  0.00000000E+00  0.00000000E+00
  0.00000000E+00  0.00000000E+00  0.00000000E+00
  0.00000000E+00  0.00000000E+00  0.00000000E+00
  0.00000000E+00  0.00000000E+00  0.00000000E+00
  0.00000000E+00  0.00000000E+00  0.00000000E+00
  0.00000000E+00  0.00000000E+00  0.00000000E+00
  0.00000000E+00  0.00000000E+00  0.00000000E+00
  0.00000000E+00  0.00000000E+00  0.00000000E+00
  0.00000000E+00  0.00000000E+00  0.00000000E+00
  0.00000000E+00  0.00000000E+00  0.00000000E+00
  0.00000000E+00  0.00000000E+00  0.00000000E+00
  0.00000000E+00  0.00000000E+00  0.00000000E+00
  0.00000000E+00  0.00000000E+00  0.00000000E+00
  0.00000000E+00  0.00000000E+00  0.00000000E+00
  0.00000000E+00  0.00000000E+00  0.00000000E+00
  0.00000000E+00  0.00000000E+00  0.00000000E+00
  0.00000000E+00  0.00000000E+00  0.00000000E+00
  0.00000000E+00  0.00000000E+00  0.00000000E+00
  0.00000000E+00  0.00000000E+00  0.00000000E+00
  0.00000000E+00  0.00000000E+00  0.00000000E+00
  0.00000000E+00  0.00000000E+00  0.00000000E+00
  0.00000000E+00  0.00000000E+00  0.00000000E+00
  0.00000000E+00  0.00000000E+00  0.00000000E+00
  0.00000000E+00  0.00000000E+00  0.00000000E+00
  0.00000000E+00  0.00000000E+00  0.00000000E+00
  0.00000000E+00  0.00000000E+00  0.00000000E+00
  0.00000000E+00  0.00000000E+00  0.00000000E+00
  0.00000000E+00  0.00000000E+00  0.00000000E+00
  0.00000000E+00  0.00000000E+00  0.00000000E+00
  0.00000000E+00  0.00000000E+00  0.00000000E+00
  0.00000000E+00  0.00000000E+00  0.00000000E+00
  0.00000000E+00  0.00000000E+00  0.00000000E+00
  0.00000000E+00  0.00000000E+00  0.00000000E+00
  0.00000000E+00  0.00000000E+00  0.00000000E+00
  0.00000000E+00  0.00000000E+00  0.00000000E+00
  0.00000000E+00  0.00000000E+00  0.00000000E+00
  0.00000000E+00  0.00000000E+00  0.00000000E+00
  0.00000000E+00  0.00000000E+00  0.00000000E+00
  0.00000000E+00  0.00000000E+00  0.00000000E+00
  0.00000000E+00  0.00000000E+00  0.00000000E+00
  0.00000000E+00  0.00000000E+00  0.00000000E+00
  0.00000000E+00  0.00000000E+00  0.00000000E+00
  0.00000000E+00  0.00000000E+00  0.00000000E+00
