Pt   H                                  
   1.00000000000000     
    10.5600004195999997    0.0000000000000000    0.0000000000000000
    -5.2800002097999998    9.1452286273999999    0.0000000000000000
     0.0000000000000000    0.0000000000000000   20.0000000000000000
   Pt   H 
    64     2
Selective dynamics
Direct
  0.9999984446215961  0.0000015553793773  0.0557922949150012   F   F   F
  0.3334206113370918  0.1669662620206912  0.1777390277403150   T   T   T
  0.1667987978618445  0.3335379425812487  0.2996970910654667   T   T   T
  0.9998807422361163  0.9998797268626651  0.4181983662359280   T   T   T
  0.9999984416169312  0.2500015483757210  0.0557922949150012   F   F   F
  0.3333077140832211  0.4166719977522553  0.1791898932202994   T   T   T
  0.1669270548952638  0.0835927918766420  0.2974250462604642   T   T   T
  0.9998316851854797  0.2499398355315349  0.4202894752935406   T   T   T
  0.2499984416169312  0.2500015483757210  0.0557922949150012   F   F   F
  0.0836916479783917  0.4164930224356089  0.1781919004898797   T   T   T
  0.4167969301857526  0.0833022889140897  0.2970503903961260   T   T   T
  0.2497353095990902  0.2498010002662439  0.4201805037708885   T   T   T
  0.2499984446215961  0.0000015553793773  0.0557922949150012   F   F   F
  0.0836084380160513  0.1670336750885271  0.1779695775364423   T   T   T
  0.4166965787101704  0.3333128213423996  0.2988507491801790   T   T   T
  0.2499993877278573  0.9998871915018398  0.4187519441824498   T   T   T
  0.4999984446215961  0.0000015553793773  0.0557922949150012   F   F   F
  0.8334619598106022  0.1666513283778552  0.1775482847487040   T   T   T
  0.6666983107239456  0.3332386080333271  0.2971139756051352   T   T   T
  0.5000063408385168  0.9999360372321895  0.4187292394425987   T   T   T
  0.4999984296188273  0.2500015483757210  0.0557922949150012   F   F   F
  0.8332888975056688  0.4164171619779261  0.1769476977535936   T   T   T
  0.6667820572729354  0.0832185177486597  0.2973600552308673   T   T   T
  0.5001593313575575  0.2498193703070426  0.4191643519343231   T   T   T
  0.7499984076207227  0.2500015483757210  0.0557922949150012   F   F   F
  0.5830127659246148  0.4165563950063076  0.1777839330458916   T   T   T
  0.9166935376826898  0.0834763856303905  0.2974793064469313   T   T   T
  0.7500399159224785  0.2499852292557377  0.4187320682406535   T   T   T
  0.7499984216197078  0.0000015553793773  0.0557922949150012   F   F   F
  0.5833339987005913  0.1666481303185275  0.1773427479211244   T   T   T
  0.9167762782484535  0.3330653686710738  0.2973909438509281   T   T   T
  0.7499979625947334  0.0000001939583688  0.4196166270968578   T   T   T
  0.9999984376190483  0.5000015423780582  0.0557922949150012   F   F   F
  0.3334829406186552  0.6662788056569806  0.1782169098892473   T   T   T
  0.1669814747032332  0.8333505846697496  0.2958633203626757   T   T   T
  0.0000372079186420  0.4999882792351187  0.4183161686326163   T   T   T
  0.9999984326223199  0.7500015093827130  0.0557922949150012   F   F   F
  0.3335629981502759  0.9166765543180084  0.1769095507930318   T   T   T
  0.1669533716979420  0.5830026605044520  0.2977026905733919   T   T   T
  0.0000176067904534  0.7499615446302655  0.4167792647750851   T   T   T
  0.2499984326223199  0.7500015093827130  0.0557922949150012   F   F   F
  0.0835165193663193  0.9169916573529668  0.1766359036797799   T   T   T
  0.4164710621352294  0.5832343306320587  0.2997746285644267   T   T   T
  0.2499895297424800  0.7499379121794243  0.4182573659232634   T   T   T
  0.2499984376190483  0.5000015423780582  0.0557922949150012   F   F   F
  0.0835326836528703  0.6664168637140364  0.1765027570421313   T   T   T
  0.4169275109219492  0.8332036705316807  0.2974225808448062   T   T   T
  0.2498554673582055  0.5001264634506133  0.4223849852357249   T   T   T
  0.4999984376190483  0.5000015423780582  0.0557922949150012   F   F   F
  0.8329619049256957  0.6664316893799741  0.1766990082400835   T   T   T
  0.6664709321759097  0.8332481527622868  0.2975789222719991   T   T   T
  0.5001746060365376  0.5002360902399825  0.4201893546780575   T   T   T
  0.4999984326223199  0.7500015093827130  0.0557922949150012   F   F   F
  0.8331956660872190  0.9167266098984449  0.1770415720940763   T   T   T
  0.6664153295745445  0.5830814881110908  0.2975222480312574   T   T   T
  0.5000525216183256  0.7501756751369332  0.4204822336015367   T   T   T
  0.7499984106242152  0.7500015093827130  0.0557922949150012   F   F   F
  0.5833032817203327  0.9164760139459209  0.1775792079390725   T   T   T
  0.9166113252515760  0.5829916876032268  0.2959649474557249   T   T   T
  0.7500948333145441  0.7500956627902665  0.4183607346677130   T   T   T
  0.7499983926190481  0.5000015423780582  0.0557922949150012   F   F   F
  0.5829232521852846  0.6663369488946289  0.1780396705951571   T   T   T
  0.9165526073186842  0.8334013830896601  0.2959541272333934   T   T   T
  0.7500916669686910  0.4999922477540432  0.4189280260473204   T   T   T
  0.3643250445101344  0.4027115277121124  0.5513017126609613   T   T   T
  0.3873799728702079  0.3456556556143174  0.5534371206768754   T   T   T
 
  0.00000000E+00  0.00000000E+00  0.00000000E+00
  0.00000000E+00  0.00000000E+00  0.00000000E+00
  0.00000000E+00  0.00000000E+00  0.00000000E+00
  0.00000000E+00  0.00000000E+00  0.00000000E+00
  0.00000000E+00  0.00000000E+00  0.00000000E+00
  0.00000000E+00  0.00000000E+00  0.00000000E+00
  0.00000000E+00  0.00000000E+00  0.00000000E+00
  0.00000000E+00  0.00000000E+00  0.00000000E+00
  0.00000000E+00  0.00000000E+00  0.00000000E+00
  0.00000000E+00  0.00000000E+00  0.00000000E+00
  0.00000000E+00  0.00000000E+00  0.00000000E+00
  0.00000000E+00  0.00000000E+00  0.00000000E+00
  0.00000000E+00  0.00000000E+00  0.00000000E+00
  0.00000000E+00  0.00000000E+00  0.00000000E+00
  0.00000000E+00  0.00000000E+00  0.00000000E+00
  0.00000000E+00  0.00000000E+00  0.00000000E+00
  0.00000000E+00  0.00000000E+00  0.00000000E+00
  0.00000000E+00  0.00000000E+00  0.00000000E+00
  0.00000000E+00  0.00000000E+00  0.00000000E+00
  0.00000000E+00  0.00000000E+00  0.00000000E+00
  0.00000000E+00  0.00000000E+00  0.00000000E+00
  0.00000000E+00  0.00000000E+00  0.00000000E+00
  0.00000000E+00  0.00000000E+00  0.00000000E+00
  0.00000000E+00  0.00000000E+00  0.00000000E+00
  0.00000000E+00  0.00000000E+00  0.00000000E+00
  0.00000000E+00  0.00000000E+00  0.00000000E+00
  0.00000000E+00  0.00000000E+00  0.00000000E+00
  0.00000000E+00  0.00000000E+00  0.00000000E+00
  0.00000000E+00  0.00000000E+00  0.00000000E+00
  0.00000000E+00  0.00000000E+00  0.00000000E+00
  0.00000000E+00  0.00000000E+00  0.00000000E+00
  0.00000000E+00  0.00000000E+00  0.00000000E+00
  0.00000000E+00  0.00000000E+00  0.00000000E+00
  0.00000000E+00  0.00000000E+00  0.00000000E+00
  0.00000000E+00  0.00000000E+00  0.00000000E+00
  0.00000000E+00  0.00000000E+00  0.00000000E+00
  0.00000000E+00  0.00000000E+00  0.00000000E+00
  0.00000000E+00  0.00000000E+00  0.00000000E+00
  0.00000000E+00  0.00000000E+00  0.00000000E+00
  0.00000000E+00  0.00000000E+00  0.00000000E+00
  0.00000000E+00  0.00000000E+00  0.00000000E+00
  0.00000000E+00  0.00000000E+00  0.00000000E+00
  0.00000000E+00  0.00000000E+00  0.00000000E+00
  0.00000000E+00  0.00000000E+00  0.00000000E+00
  0.00000000E+00  0.00000000E+00  0.00000000E+00
  0.00000000E+00  0.00000000E+00  0.00000000E+00
  0.00000000E+00  0.00000000E+00  0.00000000E+00
  0.00000000E+00  0.00000000E+00  0.00000000E+00
  0.00000000E+00  0.00000000E+00  0.00000000E+00
  0.00000000E+00  0.00000000E+00  0.00000000E+00
  0.00000000E+00  0.00000000E+00  0.00000000E+00
  0.00000000E+00  0.00000000E+00  0.00000000E+00
  0.00000000E+00  0.00000000E+00  0.00000000E+00
  0.00000000E+00  0.00000000E+00  0.00000000E+00
  0.00000000E+00  0.00000000E+00  0.00000000E+00
  0.00000000E+00  0.00000000E+00  0.00000000E+00
  0.00000000E+00  0.00000000E+00  0.00000000E+00
  0.00000000E+00  0.00000000E+00  0.00000000E+00
  0.00000000E+00  0.00000000E+00  0.00000000E+00
  0.00000000E+00  0.00000000E+00  0.00000000E+00
  0.00000000E+00  0.00000000E+00  0.00000000E+00
  0.00000000E+00  0.00000000E+00  0.00000000E+00
  0.00000000E+00  0.00000000E+00  0.00000000E+00
  0.00000000E+00  0.00000000E+00  0.00000000E+00
  0.00000000E+00  0.00000000E+00  0.00000000E+00
  0.00000000E+00  0.00000000E+00  0.00000000E+00
