Pt   H                                  
   1.00000000000000     
    10.5600004195999997    0.0000000000000000    0.0000000000000000
    -5.2800002097999998    9.1452286273999999    0.0000000000000000
     0.0000000000000000    0.0000000000000000   20.0000000000000000
   Pt   H 
    64     2
Selective dynamics
Direct
  0.9999984446215961  0.0000015553793773  0.0557922949150012   F   F   F
  0.3334977161508954  0.1675054886942887  0.1789893954243243   T   T   T
  0.1672359177667592  0.3332745485093814  0.3035427758903408   T   T   T
  0.9998147040931997  0.0002346353904804  0.4173098399281310   T   T   T
  0.9999984416169312  0.2500015483757210  0.0557922949150012   F   F   F
  0.3334111398858839  0.4163733437922655  0.1833926818176418   T   T   T
  0.1678257065845103  0.0849693218879414  0.2991427848240818   T   T   T
  0.9996082886007160  0.2501096619638409  0.4206589586440814   T   T   T
  0.2499984416169312  0.2500015483757210  0.0557922949150012   F   F   F
  0.0843153390728828  0.4161190344415573  0.1783578683473402   T   T   T
  0.4167552815735353  0.0836348741974190  0.2967968552995979   T   T   T
  0.2491436437568023  0.2496503050317891  0.4278848608054145   T   T   T
  0.2499984446215961  0.0000015553793773  0.0557922949150012   F   F   F
  0.0845049324468798  0.1674911444384587  0.1791730914166457   T   T   T
  0.4161516720143529  0.3337715868959014  0.3034961897893798   T   T   T
  0.2498916277224816  0.0001560125985997  0.4185492609634936   T   T   T
  0.4999984446215961  0.0000015553793773  0.0557922949150012   F   F   F
  0.8337888946417893  0.1665887609172669  0.1772673164524101   T   T   T
  0.6663449466591638  0.3332539748815223  0.2965983083416291   T   T   T
  0.4999280872435169  0.0001997569920341  0.4182352678601102   T   T   T
  0.4999984296188273  0.2500015483757210  0.0557922949150012   F   F   F
  0.8331017402467249  0.4159626602542654  0.1761759478022748   T   T   T
  0.6666488919334611  0.0833966209856242  0.2967777683075006   T   T   T
  0.5001092377244588  0.2500612612705997  0.4190930314892836   T   T   T
  0.7499984076207227  0.2500015483757210  0.0557922949150012   F   F   F
  0.5823075874644469  0.4163379070339067  0.1787639311585178   T   T   T
  0.9168476285528127  0.0836494022373270  0.2969316164992285   T   T   T
  0.7499821226565886  0.2502695357328790  0.4182924577417289   T   T   T
  0.7499984216197078  0.0000015553793773  0.0557922949150012   F   F   F
  0.5831452557701603  0.1666831908948903  0.1769473535988068   T   T   T
  0.9170762629826901  0.3329688622880714  0.2967012690878734   T   T   T
  0.7498936856343783  0.0003464936356658  0.4185671209472647   T   T   T
  0.9999984376190483  0.5000015423780582  0.0557922949150012   F   F   F
  0.3337273035212632  0.6655611047855433  0.1783306862631255   T   T   T
  0.1673053497686903  0.8338501584823294  0.2940033311564939   T   T   T
  0.9998854472310492  0.5003440337653429  0.4166282699668367   T   T   T
  0.9999984326223199  0.7500015093827130  0.0557922949150012   F   F   F
  0.3338895934024824  0.9167836056740730  0.1762679507354489   T   T   T
  0.1673616131436636  0.5826510758517224  0.2967810676016884   T   T   T
  0.9998732892984168  0.7503262488785640  0.4131686526948130   T   T   T
  0.2499984326223199  0.7500015093827130  0.0557922949150012   F   F   F
  0.0839752854699750  0.9175759468488608  0.1758300358243946   T   T   T
  0.4166763998769494  0.5828765461563169  0.3032555893429942   T   T   T
  0.2498631285114133  0.7503135052120798  0.4168687025206342   T   T   T
  0.2499984376190483  0.5000015423780582  0.0557922949150012   F   F   F
  0.0837210629989645  0.6661558093672573  0.1751412389604273   T   T   T
  0.4170066531001976  0.8329618634280100  0.2967578635570589   T   T   T
  0.2494523808517616  0.5007279047785220  0.4244305249755811   T   T   T
  0.4999984376190483  0.5000015423780582  0.0557922949150012   F   F   F
  0.8323319319290807  0.6659248816863580  0.1758283484478825   T   T   T
  0.6663936332100213  0.8331521162770604  0.2970582297785744   T   T   T
  0.5004508591221258  0.5010205780549241  0.4267819886100908   T   T   T
  0.4999984326223199  0.7500015093827130  0.0557922949150012   F   F   F
  0.8331353074005579  0.9167141508211114  0.1760592270101831   T   T   T
  0.6651249032311195  0.5823147394191753  0.2989429106217641   T   T   T
  0.5000896284398634  0.7505990412196840  0.4206146628959544   T   T   T
  0.7499984106242152  0.7500015093827130  0.0557922949150012   F   F   F
  0.5832509939902563  0.9160520749777177  0.1773270607925282   T   T   T
  0.9161936720684238  0.5827156164342282  0.2939348356303323   T   T   T
  0.7500731214479255  0.7504784154321834  0.4177397078674415   T   T   T
  0.7499983926190481  0.5000015423780582  0.0557922949150012   F   F   F
  0.5823880994491912  0.6653953706772057  0.1790970322151623   T   T   T
  0.9162969401747180  0.8336868988739009  0.2937871118009152   T   T   T
  0.7500271314160399  0.5003050711828604  0.4182615182325374   T   T   T
  0.3560782659554423  0.3970457639739748  0.5359093014222002   T   T   T
  0.3949381785153944  0.3519856438819807  0.5366185181848553   T   T   T
 
  0.00000000E+00  0.00000000E+00  0.00000000E+00
  0.00000000E+00  0.00000000E+00  0.00000000E+00
  0.00000000E+00  0.00000000E+00  0.00000000E+00
  0.00000000E+00  0.00000000E+00  0.00000000E+00
  0.00000000E+00  0.00000000E+00  0.00000000E+00
  0.00000000E+00  0.00000000E+00  0.00000000E+00
  0.00000000E+00  0.00000000E+00  0.00000000E+00
  0.00000000E+00  0.00000000E+00  0.00000000E+00
  0.00000000E+00  0.00000000E+00  0.00000000E+00
  0.00000000E+00  0.00000000E+00  0.00000000E+00
  0.00000000E+00  0.00000000E+00  0.00000000E+00
  0.00000000E+00  0.00000000E+00  0.00000000E+00
  0.00000000E+00  0.00000000E+00  0.00000000E+00
  0.00000000E+00  0.00000000E+00  0.00000000E+00
  0.00000000E+00  0.00000000E+00  0.00000000E+00
  0.00000000E+00  0.00000000E+00  0.00000000E+00
  0.00000000E+00  0.00000000E+00  0.00000000E+00
  0.00000000E+00  0.00000000E+00  0.00000000E+00
  0.00000000E+00  0.00000000E+00  0.00000000E+00
  0.00000000E+00  0.00000000E+00  0.00000000E+00
  0.00000000E+00  0.00000000E+00  0.00000000E+00
  0.00000000E+00  0.00000000E+00  0.00000000E+00
  0.00000000E+00  0.00000000E+00  0.00000000E+00
  0.00000000E+00  0.00000000E+00  0.00000000E+00
  0.00000000E+00  0.00000000E+00  0.00000000E+00
  0.00000000E+00  0.00000000E+00  0.00000000E+00
  0.00000000E+00  0.00000000E+00  0.00000000E+00
  0.00000000E+00  0.00000000E+00  0.00000000E+00
  0.00000000E+00  0.00000000E+00  0.00000000E+00
  0.00000000E+00  0.00000000E+00  0.00000000E+00
  0.00000000E+00  0.00000000E+00  0.00000000E+00
  0.00000000E+00  0.00000000E+00  0.00000000E+00
  0.00000000E+00  0.00000000E+00  0.00000000E+00
  0.00000000E+00  0.00000000E+00  0.00000000E+00
  0.00000000E+00  0.00000000E+00  0.00000000E+00
  0.00000000E+00  0.00000000E+00  0.00000000E+00
  0.00000000E+00  0.00000000E+00  0.00000000E+00
  0.00000000E+00  0.00000000E+00  0.00000000E+00
  0.00000000E+00  0.00000000E+00  0.00000000E+00
  0.00000000E+00  0.00000000E+00  0.00000000E+00
  0.00000000E+00  0.00000000E+00  0.00000000E+00
  0.00000000E+00  0.00000000E+00  0.00000000E+00
  0.00000000E+00  0.00000000E+00  0.00000000E+00
  0.00000000E+00  0.00000000E+00  0.00000000E+00
  0.00000000E+00  0.00000000E+00  0.00000000E+00
  0.00000000E+00  0.00000000E+00  0.00000000E+00
  0.00000000E+00  0.00000000E+00  0.00000000E+00
  0.00000000E+00  0.00000000E+00  0.00000000E+00
  0.00000000E+00  0.00000000E+00  0.00000000E+00
  0.00000000E+00  0.00000000E+00  0.00000000E+00
  0.00000000E+00  0.00000000E+00  0.00000000E+00
  0.00000000E+00  0.00000000E+00  0.00000000E+00
  0.00000000E+00  0.00000000E+00  0.00000000E+00
  0.00000000E+00  0.00000000E+00  0.00000000E+00
  0.00000000E+00  0.00000000E+00  0.00000000E+00
  0.00000000E+00  0.00000000E+00  0.00000000E+00
  0.00000000E+00  0.00000000E+00  0.00000000E+00
  0.00000000E+00  0.00000000E+00  0.00000000E+00
  0.00000000E+00  0.00000000E+00  0.00000000E+00
  0.00000000E+00  0.00000000E+00  0.00000000E+00
  0.00000000E+00  0.00000000E+00  0.00000000E+00
  0.00000000E+00  0.00000000E+00  0.00000000E+00
  0.00000000E+00  0.00000000E+00  0.00000000E+00
  0.00000000E+00  0.00000000E+00  0.00000000E+00
  0.00000000E+00  0.00000000E+00  0.00000000E+00
  0.00000000E+00  0.00000000E+00  0.00000000E+00
