Pt111                                   
   1.00000000000000     
    10.5600000059999992    0.0000000000000000    0.0000000000000000
     5.2800002098030001    9.1452286273900008    0.0000000000000000
     0.0000000000000000    0.0000000000000000   22.0000000000000000
   Pt   H 
    80     1
Selective dynamics
Direct
  0.7785576605306614  0.8746173700758161  0.3340286030342376   T   T   T
  0.0293247776029651  0.8750245796138162  0.3361588902504636   T   T   T
  0.0292168051135966  0.6234473381993832  0.3370992834948442   T   T   T
  0.7943453986421293  0.8614066396009132  0.0046811833500258   T   T   T
  0.0449050924438070  0.8613846037679956  0.0057983217711608   T   T   T
  0.0451102179227664  0.6108844053892452  0.0054237145983617   T   T   T
  0.6214457728050834  0.2008060610832308  0.1240412865773204   T   T   T
  0.3716649333993115  0.9489817296267693  0.1106724212302382   T   T   T
  0.0294002941824542  0.3743084805789401  0.3234673516692746   T   T   T
  0.0438929463473467  0.3621948921039954 -0.0078695231108568   T   T   T
  0.8708855953394341  0.2014279792616038  0.1090384433788737   T   T   T
  0.9504821328442496  0.5369768349017864  0.2199162114275688   T   T   T
  0.2790284338421069  0.1244555199563852  0.3234695870810508   T   T   T
  0.5289531985348767  0.6238760098368002  0.3509339129158283   T   T   T
  0.2788657857302021  0.3747176652009878  0.3420435921452243   T   T   T
  0.2948604522675904  0.1112665809636060 -0.0051680985309526   T   T   T
  0.5443928314360096  0.6115678396132818  0.0161911635885171   T   T   T
  0.2950657292790279  0.3627767429228268  0.0001877151896328   T   T   T
  0.6219120873888441  0.9502359536018146  0.1189574820167827   T   T   T
  0.6997877361525405  0.7874134916272117  0.2279853932836522   T   T   T
  0.8717286733436859  0.7003074522661448  0.1160960582686306   T   T   T
  0.6220287728446298  0.4500148094881665  0.1258034413303136   T   T   T
  0.2790501606080149  0.8738239549012662  0.3398143229418163   T   T   T
  0.2950249873249433  0.8594768749658117 -0.0003654499455934   T   T   T
  0.6216855507687741  0.6997509362077721  0.1236697661086602   T   T   T
  0.2007681191256332  0.0363215799198609  0.2123003808868099   T   T   T
  0.8585825379561519  0.9611453240568054  0.4454517704126237   T   T   T
  0.1087594689274007  0.4600653667449492  0.4477675567324900   T   T   T
  0.1091072106668173  0.9613504314776071  0.4457822731509450   T   T   T
  0.8587244289328261  0.4603565820605874  0.4439265102735924   T   T   T
  0.3578467508042051  0.9612100659406277  0.4451766865172286   T   T   T
  0.8589821626323411  0.2114809875843439  0.4445653570072383   T   T   T
  0.1091012251823001  0.2107309933121342  0.4303282327248943   T   T   T
  0.6080582667337522  0.9613489214518725  0.4488915441740858   T   T   T
  0.8584944280190006  0.7110518912454045  0.4461154265247261   T   T   T
  0.3574020292272904  0.2112093709470995  0.4477091742898257   T   T   T
  0.3567431617203098  0.7150003999440785  0.4674541647401508   T   T   T
  0.6135676117879849  0.4585428514737477  0.4684632116461803   T   T   T
  0.1086085979851073  0.7109459444688019  0.4511644676655913   T   T   T
  0.6089439611114099  0.2109221439341757  0.4524115005967949   T   T   T
  0.5290222279903719  0.3748961786858325  0.3517734098047892   T   T   T
  0.5442316095369114  0.3616407113355772  0.0163910295947102   T   T   T
  0.5278622655799178  0.1247678521842112  0.3386035443438577   T   T   T
  0.5437738021867680  0.1121596468897697  0.0077269998347821   T   T   T
  0.8708636909864170  0.4498472602184627  0.1092412651329953   T   T   T
  0.1230629121758816  0.4503038305164761  0.1103491815539233   T   T   T
  0.0292037622179465  0.1241001193321880  0.3229873466565807   T   T   T
  0.0436579127953614  0.1111782289710325 -0.0080909429063322   T   T   T
  0.1229690605548611  0.9487347704542340  0.1092909058909250   T   T   T
  0.3566537430012052  0.4587697575760258  0.4682682879314183   T   T   T
  0.4494988482708385  0.5380098893501187  0.2471808581839243   T   T   T
  0.6088626115611151  0.7106675869920633  0.4509751761608280   T   T   T
  0.3715016828392641  0.2016216150577326  0.1114255223657578   T   T   T
  0.1217821663516827  0.2003768921366217  0.0995848210029396   T   T   T
  0.9496277210663502  0.7878419214833975  0.2273498098103133   T   T   T
  0.7790472844305876  0.6236190597189326  0.3352641290000830   T   T   T
  0.2792334443462584  0.6243772222514392  0.3518583892926627   T   T   T
  0.7942294080215289  0.6108796326685499  0.0051047741599869   T   T   T
  0.2934942628320028  0.6119117972860426  0.0203812094291538   T   T   T
  0.3715432290889552  0.7008271858044478  0.1289799098172373   T   T   T
  0.3716347419277137  0.4497248070522745  0.1302985416747217   T   T   T
  0.2007530001033064  0.2885067449650100  0.2136545166256627   T   T   T
  0.7781303750054147  0.3746555720023845  0.3374971150947415   T   T   T
  0.7921248678186382  0.3626053533104253 -0.0034443868949201   T   T   T
  0.9504882532999032  0.0380866721442433  0.2194671730783571   T   T   T
  0.4486878601034923  0.7883401476140272  0.2339789697775674   T   T   T
  0.6997730017059617  0.5368034019130213  0.2314538999623234   T   T   T
  0.1996789750098155  0.7887700488287113  0.2340565049016661   T   T   T
  0.4491423019474954  0.0382923831151363  0.2217551419645996   T   T   T
  0.1220428986586078  0.6998583935759467  0.1253543053780941   T   T   T
  0.6994351653227225  0.0386598377941794  0.2286047546927471   T   T   T
  0.7789929701497031  0.1253114197682931  0.3356004286518623   T   T   T
  0.5280113059090515  0.8751152370833514  0.3370617242893955   T   T   T
  0.7939520187042164  0.1123130784252688  0.0057085525413023   T   T   T
  0.5437660428080284  0.8615544958671224  0.0078252692210762   T   T   T
  0.1997356749624246  0.5368427815335631  0.2355344521683741   T   T   T
  0.9493178610718030  0.2880720598657794  0.2127675562635949   T   T   T
  0.8716277274120842  0.9501090244631748  0.1163636256850124   T   T   T
  0.6998770768185341  0.2887141067463881  0.2314382391906449   T   T   T
  0.4485468762983740  0.2883578815693661  0.2357945097481128   T   T   T
  0.4424702340116134  0.5447226743940954  0.5139725776844970   T   T   T
 
  0.00000000E+00  0.00000000E+00  0.00000000E+00
  0.00000000E+00  0.00000000E+00  0.00000000E+00
  0.00000000E+00  0.00000000E+00  0.00000000E+00
  0.00000000E+00  0.00000000E+00  0.00000000E+00
  0.00000000E+00  0.00000000E+00  0.00000000E+00
  0.00000000E+00  0.00000000E+00  0.00000000E+00
  0.00000000E+00  0.00000000E+00  0.00000000E+00
  0.00000000E+00  0.00000000E+00  0.00000000E+00
  0.00000000E+00  0.00000000E+00  0.00000000E+00
  0.00000000E+00  0.00000000E+00  0.00000000E+00
  0.00000000E+00  0.00000000E+00  0.00000000E+00
  0.00000000E+00  0.00000000E+00  0.00000000E+00
  0.00000000E+00  0.00000000E+00  0.00000000E+00
  0.00000000E+00  0.00000000E+00  0.00000000E+00
  0.00000000E+00  0.00000000E+00  0.00000000E+00
  0.00000000E+00  0.00000000E+00  0.00000000E+00
  0.00000000E+00  0.00000000E+00  0.00000000E+00
  0.00000000E+00  0.00000000E+00  0.00000000E+00
  0.00000000E+00  0.00000000E+00  0.00000000E+00
  0.00000000E+00  0.00000000E+00  0.00000000E+00
  0.00000000E+00  0.00000000E+00  0.00000000E+00
  0.00000000E+00  0.00000000E+00  0.00000000E+00
  0.00000000E+00  0.00000000E+00  0.00000000E+00
  0.00000000E+00  0.00000000E+00  0.00000000E+00
  0.00000000E+00  0.00000000E+00  0.00000000E+00
  0.00000000E+00  0.00000000E+00  0.00000000E+00
  0.00000000E+00  0.00000000E+00  0.00000000E+00
  0.00000000E+00  0.00000000E+00  0.00000000E+00
  0.00000000E+00  0.00000000E+00  0.00000000E+00
  0.00000000E+00  0.00000000E+00  0.00000000E+00
  0.00000000E+00  0.00000000E+00  0.00000000E+00
  0.00000000E+00  0.00000000E+00  0.00000000E+00
  0.00000000E+00  0.00000000E+00  0.00000000E+00
  0.00000000E+00  0.00000000E+00  0.00000000E+00
  0.00000000E+00  0.00000000E+00  0.00000000E+00
  0.00000000E+00  0.00000000E+00  0.00000000E+00
  0.00000000E+00  0.00000000E+00  0.00000000E+00
  0.00000000E+00  0.00000000E+00  0.00000000E+00
  0.00000000E+00  0.00000000E+00  0.00000000E+00
  0.00000000E+00  0.00000000E+00  0.00000000E+00
  0.00000000E+00  0.00000000E+00  0.00000000E+00
  0.00000000E+00  0.00000000E+00  0.00000000E+00
  0.00000000E+00  0.00000000E+00  0.00000000E+00
  0.00000000E+00  0.00000000E+00  0.00000000E+00
  0.00000000E+00  0.00000000E+00  0.00000000E+00
  0.00000000E+00  0.00000000E+00  0.00000000E+00
  0.00000000E+00  0.00000000E+00  0.00000000E+00
  0.00000000E+00  0.00000000E+00  0.00000000E+00
  0.00000000E+00  0.00000000E+00  0.00000000E+00
  0.00000000E+00  0.00000000E+00  0.00000000E+00
  0.00000000E+00  0.00000000E+00  0.00000000E+00
  0.00000000E+00  0.00000000E+00  0.00000000E+00
  0.00000000E+00  0.00000000E+00  0.00000000E+00
  0.00000000E+00  0.00000000E+00  0.00000000E+00
  0.00000000E+00  0.00000000E+00  0.00000000E+00
  0.00000000E+00  0.00000000E+00  0.00000000E+00
  0.00000000E+00  0.00000000E+00  0.00000000E+00
  0.00000000E+00  0.00000000E+00  0.00000000E+00
  0.00000000E+00  0.00000000E+00  0.00000000E+00
  0.00000000E+00  0.00000000E+00  0.00000000E+00
  0.00000000E+00  0.00000000E+00  0.00000000E+00
  0.00000000E+00  0.00000000E+00  0.00000000E+00
  0.00000000E+00  0.00000000E+00  0.00000000E+00
  0.00000000E+00  0.00000000E+00  0.00000000E+00
  0.00000000E+00  0.00000000E+00  0.00000000E+00
  0.00000000E+00  0.00000000E+00  0.00000000E+00
  0.00000000E+00  0.00000000E+00  0.00000000E+00
  0.00000000E+00  0.00000000E+00  0.00000000E+00
  0.00000000E+00  0.00000000E+00  0.00000000E+00
  0.00000000E+00  0.00000000E+00  0.00000000E+00
  0.00000000E+00  0.00000000E+00  0.00000000E+00
  0.00000000E+00  0.00000000E+00  0.00000000E+00
  0.00000000E+00  0.00000000E+00  0.00000000E+00
  0.00000000E+00  0.00000000E+00  0.00000000E+00
  0.00000000E+00  0.00000000E+00  0.00000000E+00
  0.00000000E+00  0.00000000E+00  0.00000000E+00
  0.00000000E+00  0.00000000E+00  0.00000000E+00
  0.00000000E+00  0.00000000E+00  0.00000000E+00
  0.00000000E+00  0.00000000E+00  0.00000000E+00
  0.00000000E+00  0.00000000E+00  0.00000000E+00
  0.00000000E+00  0.00000000E+00  0.00000000E+00
