Pt   H                                  
   1.00000000000000     
    10.5600004195999997    0.0000000000000000    0.0000000000000000
    -5.2800002097999998    9.1452286273999999    0.0000000000000000
     0.0000000000000000    0.0000000000000000   20.0000000000000000
   Pt   H 
    64     2
Selective dynamics
Direct
  0.9999984446215961  0.0000015553793773  0.0557922949150012   F   F   F
  0.3336338265993604  0.1680301072403978  0.1794666457100007   F   F   F
  0.1679546290328773  0.3330297097521395  0.3058245524900016   F   F   F
  0.0000497178460463  0.0005359654853621  0.4164360445150024   F   F   F
  0.9999984416169312  0.2500015483757210  0.0557922949150012   F   F   F
  0.3336628478689718  0.4163795276031905  0.1863565598799966   F   F   F
  0.1689989469334421  0.0864625686153886  0.3002304669750018   F   F   F
  0.9994363453619073  0.2496989227648427  0.4201796252899967   F   F   F
  0.2499984416169312  0.2500015483757210  0.0557922949150012   F   F   F
  0.0849013785861672  0.4161186759834905  0.1782068571699966   F   F   F
  0.4167403342513225  0.0840020313323109  0.2967033614100032   F   F   F
  0.2479241471978142  0.2482452440825895  0.4381191468850005   F   F   F
  0.2499984446215961  0.0000015553793773  0.0557922949150012   F   F   F
  0.0853504957212010  0.1680065871176382  0.1796965225000022   F   F   F
  0.4159761338487513  0.3341846283474368  0.3065885714599972   F   F   F
  0.2494813595525613  0.9998314365706094  0.4184280644349982   F   F   F
  0.4999984446215961  0.0000015553793773  0.0557922949150012   F   F   F
  0.8340522174508322  0.1666605810196486  0.1773396718700013   F   F   F
  0.6660613519294216  0.3333295946442263  0.2964432480399992   F   F   F
  0.4998733816901151  0.9999234441118432  0.4180922504000009   F   F   F
  0.4999984296188273  0.2500015483757210  0.0557922949150012   F   F   F
  0.8331902449482982  0.4160844958647942  0.1758512704650030   F   F   F
  0.6665170898919044  0.0834591350415437  0.2967463512749973   F   F   F
  0.4998155753313895  0.2498979614192223  0.4188323520750004   F   F   F
  0.7499984076207227  0.2500015483757210  0.0557922949150012   F   F   F
  0.5820000874585176  0.4164313032579372  0.1793671884899979   F   F   F
  0.9170499483055110  0.0836222675296199  0.2965870424799988   F   F   F
  0.7497565837101376  0.2498571311660740  0.4180489409749981   F   F   F
  0.7499984216197078  0.0000015553793773  0.0557922949150012   F   F   F
  0.5830858526865796  0.1669248675780821  0.1767910868350029   F   F   F
  0.9173040850189551  0.3328850727010746  0.2962317312000025   F   F   F
  0.7496290936793812  0.0000963422497051  0.4182100938599973   F   F   F
  0.9999984376190483  0.5000015423780582  0.0557922949150012   F   F   F
  0.3339948087201847  0.6652005781761972  0.1782981859049997   F   F   F
  0.1675713085089470  0.8341894986466727  0.2934448501150015   F   F   F
  0.9994275087749784  0.5000754883916088  0.4156132968549997   F   F   F
  0.9999984326223199  0.7500015093827130  0.0557922949150012   F   F   F
  0.3339776449917906  0.9168962358116488  0.1761052617150014   F   F   F
  0.1680485567119661  0.5820942583273023  0.2964460027200033   F   F   F
  0.9994963835538755  0.7501614919003288  0.4113975327150001   F   F   F
  0.2499984326223199  0.7500015093827130  0.0557922949150012   F   F   F
  0.0843149104399572  0.9180540356471028  0.1756230154200011   F   F   F
  0.4169885173903722  0.5820942789938144  0.3060246243749987   F   F   F
  0.2496487975058841  0.7502816888078954  0.4160392356250000   F   F   F
  0.2499984376190483  0.5000015423780582  0.0557922949150012   F   F   F
  0.0839024259359817  0.6662825779930586  0.1746586015850013   F   F   F
  0.4171267103775520  0.8326780713480062  0.2964502249700018   F   F   F
  0.2487164921251477  0.5008195985475439  0.4257182824100028   F   F   F
  0.4999984376190483  0.5000015423780582  0.0557922949150012   F   F   F
  0.8319486995676542  0.6657594890802585  0.1756189259150034   F   F   F
  0.6663541777523747  0.8328871866340108  0.2968825776699973   F   F   F
  0.5011006908785660  0.5016475393359627  0.4384779096000031   F   F   F
  0.4999984326223199  0.7500015093827130  0.0557922949150012   F   F   F
  0.8331256693472255  0.9168239316925337  0.1754846565499975   F   F   F
  0.6635867859615132  0.5811595741604805  0.3004476238699993   F   F   F
  0.5000051377860544  0.7502253636222775  0.4204622816300017   F   F   F
  0.7499984106242152  0.7500015093827130  0.0557922949150012   F   F   F
  0.5833318080862142  0.9159407227068357  0.1773870282000019   F   F   F
  0.9159158210950693  0.5825336124936840  0.2931622798350020   F   F   F
  0.7491651847317087  0.7496177807474922  0.4170336112799973   F   F   F
  0.7499983926190481  0.5000015423780582  0.0557922949150012   F   F   F
  0.5819975107401589  0.6646759654305257  0.1800066667300015   F   F   F
  0.9161056132277210  0.8337464216974695  0.2927570942449975   F   F   F
  0.7497590681740789  0.5001917375903275  0.4181008214750008   F   F   F
  0.3547917342160503  0.4002955025019190  0.5208665574550011   T   T   T
  0.3962537725938091  0.3505688762328418  0.5203218109900014   T   T   T
 
  0.00000000E+00  0.00000000E+00  0.00000000E+00
  0.00000000E+00  0.00000000E+00  0.00000000E+00
  0.00000000E+00  0.00000000E+00  0.00000000E+00
  0.00000000E+00  0.00000000E+00  0.00000000E+00
  0.00000000E+00  0.00000000E+00  0.00000000E+00
  0.00000000E+00  0.00000000E+00  0.00000000E+00
  0.00000000E+00  0.00000000E+00  0.00000000E+00
  0.00000000E+00  0.00000000E+00  0.00000000E+00
  0.00000000E+00  0.00000000E+00  0.00000000E+00
  0.00000000E+00  0.00000000E+00  0.00000000E+00
  0.00000000E+00  0.00000000E+00  0.00000000E+00
  0.00000000E+00  0.00000000E+00  0.00000000E+00
  0.00000000E+00  0.00000000E+00  0.00000000E+00
  0.00000000E+00  0.00000000E+00  0.00000000E+00
  0.00000000E+00  0.00000000E+00  0.00000000E+00
  0.00000000E+00  0.00000000E+00  0.00000000E+00
  0.00000000E+00  0.00000000E+00  0.00000000E+00
  0.00000000E+00  0.00000000E+00  0.00000000E+00
  0.00000000E+00  0.00000000E+00  0.00000000E+00
  0.00000000E+00  0.00000000E+00  0.00000000E+00
  0.00000000E+00  0.00000000E+00  0.00000000E+00
  0.00000000E+00  0.00000000E+00  0.00000000E+00
  0.00000000E+00  0.00000000E+00  0.00000000E+00
  0.00000000E+00  0.00000000E+00  0.00000000E+00
  0.00000000E+00  0.00000000E+00  0.00000000E+00
  0.00000000E+00  0.00000000E+00  0.00000000E+00
  0.00000000E+00  0.00000000E+00  0.00000000E+00
  0.00000000E+00  0.00000000E+00  0.00000000E+00
  0.00000000E+00  0.00000000E+00  0.00000000E+00
  0.00000000E+00  0.00000000E+00  0.00000000E+00
  0.00000000E+00  0.00000000E+00  0.00000000E+00
  0.00000000E+00  0.00000000E+00  0.00000000E+00
  0.00000000E+00  0.00000000E+00  0.00000000E+00
  0.00000000E+00  0.00000000E+00  0.00000000E+00
  0.00000000E+00  0.00000000E+00  0.00000000E+00
  0.00000000E+00  0.00000000E+00  0.00000000E+00
  0.00000000E+00  0.00000000E+00  0.00000000E+00
  0.00000000E+00  0.00000000E+00  0.00000000E+00
  0.00000000E+00  0.00000000E+00  0.00000000E+00
  0.00000000E+00  0.00000000E+00  0.00000000E+00
  0.00000000E+00  0.00000000E+00  0.00000000E+00
  0.00000000E+00  0.00000000E+00  0.00000000E+00
  0.00000000E+00  0.00000000E+00  0.00000000E+00
  0.00000000E+00  0.00000000E+00  0.00000000E+00
  0.00000000E+00  0.00000000E+00  0.00000000E+00
  0.00000000E+00  0.00000000E+00  0.00000000E+00
  0.00000000E+00  0.00000000E+00  0.00000000E+00
  0.00000000E+00  0.00000000E+00  0.00000000E+00
  0.00000000E+00  0.00000000E+00  0.00000000E+00
  0.00000000E+00  0.00000000E+00  0.00000000E+00
  0.00000000E+00  0.00000000E+00  0.00000000E+00
  0.00000000E+00  0.00000000E+00  0.00000000E+00
  0.00000000E+00  0.00000000E+00  0.00000000E+00
  0.00000000E+00  0.00000000E+00  0.00000000E+00
  0.00000000E+00  0.00000000E+00  0.00000000E+00
  0.00000000E+00  0.00000000E+00  0.00000000E+00
  0.00000000E+00  0.00000000E+00  0.00000000E+00
  0.00000000E+00  0.00000000E+00  0.00000000E+00
  0.00000000E+00  0.00000000E+00  0.00000000E+00
  0.00000000E+00  0.00000000E+00  0.00000000E+00
  0.00000000E+00  0.00000000E+00  0.00000000E+00
  0.00000000E+00  0.00000000E+00  0.00000000E+00
  0.00000000E+00  0.00000000E+00  0.00000000E+00
  0.00000000E+00  0.00000000E+00  0.00000000E+00
  0.00000000E+00  0.00000000E+00  0.00000000E+00
  0.00000000E+00  0.00000000E+00  0.00000000E+00
