Pt111                                   
   1.00000000000000     
    11.2227001190000006    0.0000000000000000    0.0000000000000000
     5.6113500595000003    9.7191434021000003    0.0000000000000000
     0.0000000000000000    0.0000000000000000   22.0000000000000000
   Pt   H 
    80     2
Selective dynamics
Direct
  0.7852511105105506  0.8692472064847365  0.3265330436909082   F   F   F
  0.0353473534475910  0.8688790373723023  0.3265823524454561   F   F   F
  0.0354210704271125  0.6187181798655956  0.3263456149772708   F   F   F
  0.7857862598801191  0.8684089813796092  0.0224207557045446   F   F   F
  0.0360037067336663  0.8683084264377214  0.0225289386363627   F   F   F
  0.0358923532029465  0.6185394278266401  0.0223923781045485   F   F   F
  0.6187918276613757  0.2022385616180244  0.1259599911272744   F   F   F
  0.3691304574203471  0.9513387459127500  0.1259486809999970   F   F   F
  0.0347404249323802  0.3689271572662705  0.3260890746863652   F   F   F
  0.0355516400819553  0.3687928767905149  0.0226147952181819   F   F   F
  0.8683187976308560  0.2020625455506391  0.1259472230227274   F   F   F
  0.9522408233706940  0.5353485585443423  0.2258642460363660   F   F   F
  0.2849951338660333  0.1185984640221420  0.3261056753590879   F   F   F
  0.5352236880346410  0.6191354950169625  0.3285562292772752   F   F   F
  0.2850653948217143  0.3690074754658994  0.3263537472272731   F   F   F
  0.2861991092915019  0.1181316740477243  0.0226438626045464   F   F   F
  0.5358204420592330  0.6183417254756733  0.0228849166136342   F   F   F
  0.2858719992039056  0.3684870268635194  0.0226916429545483   F   F   F
  0.6190351656540116  0.9519385517761734  0.1257607687499984   F   F   F
  0.7019986824852325  0.7854728633750270  0.2263242059545476   F   F   F
  0.8688338707078103  0.7021381609129804  0.1257298554000030   F   F   F
  0.6185780402032748  0.4522941244956016  0.1263765221409088   F   F   F
  0.2860480125126657  0.8672761566702150  0.3275314962636386   F   F   F
  0.2858710578875261  0.8683324166486202  0.0227093473181839   F   F   F
  0.6187974607917539  0.7019882801941009  0.1261166804227258   F   F   F
  0.2018362075005911  0.0353358616486474  0.2260115699681791   F   F   F
  0.8686467782579612  0.9528246047176410  0.4301340370500029   F   F   F
  0.1169766555269192  0.4521962791649301  0.4296665042772716   F   F   F
  0.1176612690769332  0.9531086976963934  0.4301575968409068   F   F   F
  0.8710411447377240  0.4509151468485442  0.4297352648045489   F   F   F
  0.3666630180437522  0.9553116608706347  0.4297601074954542   F   F   F
  0.8688465225393571  0.2019372962102750  0.4301852749636339   F   F   F
  0.1178051968055200  0.2020844253286356  0.4297457896499992   F   F   F
  0.6184414333567219  0.9538825509043178  0.4299884719181790   F   F   F
  0.8696299328599082  0.7027085385862648  0.4299448610727268   F   F   F
  0.3679974771856891  0.2012422285051798  0.4296818397045428   F   F   F
  0.3643795594703150  0.7066670733468143  0.4345717922272740   F   F   F
  0.6225447289623034  0.4485262035703812  0.4344177040181805   F   F   F
  0.1153540998924143  0.7044237733873473  0.4299830121590915   F   F   F
  0.6201810240205603  0.1995534851950964  0.4300294269590879   F   F   F
  0.5346977696361890  0.3698684203922014  0.3280454652409119   F   F   F
  0.5359145152743494  0.3685402222510774  0.0227524288181797   F   F   F
  0.5348432126115341  0.1192735798660536  0.3263644001636337   F   F   F
  0.5360294944137891  0.1183926243079583  0.0224030748227264   F   F   F
  0.8682404141294668  0.4521961439266775  0.1259504234045465   F   F   F
  0.1189303461435571  0.4522435757301722  0.1256236813863651   F   F   F
  0.0349948858070945  0.1188159930174990  0.3263866347590891   F   F   F
  0.0356622429350537  0.1181731438134577  0.0226021251818196   F   F   F
  0.1188966627802159  0.9514689817522282  0.1259680075409122   F   F   F
  0.3635479111940327  0.4478141301176422  0.4317543692000001   F   F   F
  0.4519307684572098  0.5355672844661683  0.2272921279772717   F   F   F
  0.6226746094428464  0.7067797364545285  0.4318959082136331   F   F   F
  0.3691044102159111  0.2020693102414413  0.1256301352318161   F   F   F
  0.1185245919820446  0.2017481475143512  0.1252454986045421   F   F   F
  0.9521257609430407  0.7853973573793240  0.2261664697727284   F   F   F
  0.7850723331253846  0.6191564695608633  0.3267716294863661   F   F   F
  0.2860182091221475  0.6185890670057361  0.3280561815000027   F   F   F
  0.7857046685474174  0.6184332482018178  0.0226031536636384   F   F   F
  0.2859564229733991  0.6184566442245583  0.0227711968590896   F   F   F
  0.3691826532648932  0.7017590439941728  0.1263765716545464   F   F   F
  0.3693044158714898  0.4523780939943762  0.1261187246363633   F   F   F
  0.2014301770522877  0.2849443072114397  0.2256738845954516   F   F   F
  0.7833849652687732  0.3699658575284630  0.3275032861954514   F   F   F
  0.7857148628706838  0.3685044930426855  0.0226872839045456   F   F   F
  0.9518011986407089  0.0354505654506099  0.2262843300181814   F   F   F
  0.4520092478469948  0.7854167927443712  0.2267970040227283   F   F   F
  0.7018490241927609  0.5355732615155446  0.2267730753181851   F   F   F
  0.2024869471535311  0.7851851340881666  0.2267001996681799   F   F   F
  0.4517596726637052  0.0358408763497309  0.2258776478409104   F   F   F
  0.1190586339570032  0.7019905263179709  0.1259587668227269   F   F   F
  0.7018526005042247  0.0357091237716460  0.2261736050636358   F   F   F
  0.7849423818217076  0.1192904368865939  0.3266118011500012   F   F   F
  0.5352305788146694  0.8690103110192879  0.3267769248045482   F   F   F
  0.7856827235603348  0.1185821987306994  0.0225401408409098   F   F   F
  0.5358720739904115  0.8683337962866631  0.0226019134409086   F   F   F
  0.2022517839705884  0.5352800181624957  0.2262330605090881   F   F   F
  0.9517388825159401  0.2853624716248930  0.2260561044727254   F   F   F
  0.8688297710298656  0.9519387527300935  0.1257862868136357   F   F   F
  0.7016332420389872  0.2860009310696441  0.2266946169863644   F   F   F
  0.4517208418310688  0.2857903723387665  0.2262438374090934   F   F   F
  0.4412112992651416  0.5263431100208535  0.4711773380090918   T   T   T
  0.5460125710890368  0.6326175779309438  0.4720136137727303   T   T   T
 
  0.00000000E+00  0.00000000E+00  0.00000000E+00
  0.00000000E+00  0.00000000E+00  0.00000000E+00
  0.00000000E+00  0.00000000E+00  0.00000000E+00
  0.00000000E+00  0.00000000E+00  0.00000000E+00
  0.00000000E+00  0.00000000E+00  0.00000000E+00
  0.00000000E+00  0.00000000E+00  0.00000000E+00
  0.00000000E+00  0.00000000E+00  0.00000000E+00
  0.00000000E+00  0.00000000E+00  0.00000000E+00
  0.00000000E+00  0.00000000E+00  0.00000000E+00
  0.00000000E+00  0.00000000E+00  0.00000000E+00
  0.00000000E+00  0.00000000E+00  0.00000000E+00
  0.00000000E+00  0.00000000E+00  0.00000000E+00
  0.00000000E+00  0.00000000E+00  0.00000000E+00
  0.00000000E+00  0.00000000E+00  0.00000000E+00
  0.00000000E+00  0.00000000E+00  0.00000000E+00
  0.00000000E+00  0.00000000E+00  0.00000000E+00
  0.00000000E+00  0.00000000E+00  0.00000000E+00
  0.00000000E+00  0.00000000E+00  0.00000000E+00
  0.00000000E+00  0.00000000E+00  0.00000000E+00
  0.00000000E+00  0.00000000E+00  0.00000000E+00
  0.00000000E+00  0.00000000E+00  0.00000000E+00
  0.00000000E+00  0.00000000E+00  0.00000000E+00
  0.00000000E+00  0.00000000E+00  0.00000000E+00
  0.00000000E+00  0.00000000E+00  0.00000000E+00
  0.00000000E+00  0.00000000E+00  0.00000000E+00
  0.00000000E+00  0.00000000E+00  0.00000000E+00
  0.00000000E+00  0.00000000E+00  0.00000000E+00
  0.00000000E+00  0.00000000E+00  0.00000000E+00
  0.00000000E+00  0.00000000E+00  0.00000000E+00
  0.00000000E+00  0.00000000E+00  0.00000000E+00
  0.00000000E+00  0.00000000E+00  0.00000000E+00
  0.00000000E+00  0.00000000E+00  0.00000000E+00
  0.00000000E+00  0.00000000E+00  0.00000000E+00
  0.00000000E+00  0.00000000E+00  0.00000000E+00
  0.00000000E+00  0.00000000E+00  0.00000000E+00
  0.00000000E+00  0.00000000E+00  0.00000000E+00
  0.00000000E+00  0.00000000E+00  0.00000000E+00
  0.00000000E+00  0.00000000E+00  0.00000000E+00
  0.00000000E+00  0.00000000E+00  0.00000000E+00
  0.00000000E+00  0.00000000E+00  0.00000000E+00
  0.00000000E+00  0.00000000E+00  0.00000000E+00
  0.00000000E+00  0.00000000E+00  0.00000000E+00
  0.00000000E+00  0.00000000E+00  0.00000000E+00
  0.00000000E+00  0.00000000E+00  0.00000000E+00
  0.00000000E+00  0.00000000E+00  0.00000000E+00
  0.00000000E+00  0.00000000E+00  0.00000000E+00
  0.00000000E+00  0.00000000E+00  0.00000000E+00
  0.00000000E+00  0.00000000E+00  0.00000000E+00
  0.00000000E+00  0.00000000E+00  0.00000000E+00
  0.00000000E+00  0.00000000E+00  0.00000000E+00
  0.00000000E+00  0.00000000E+00  0.00000000E+00
  0.00000000E+00  0.00000000E+00  0.00000000E+00
  0.00000000E+00  0.00000000E+00  0.00000000E+00
  0.00000000E+00  0.00000000E+00  0.00000000E+00
  0.00000000E+00  0.00000000E+00  0.00000000E+00
  0.00000000E+00  0.00000000E+00  0.00000000E+00
  0.00000000E+00  0.00000000E+00  0.00000000E+00
  0.00000000E+00  0.00000000E+00  0.00000000E+00
  0.00000000E+00  0.00000000E+00  0.00000000E+00
  0.00000000E+00  0.00000000E+00  0.00000000E+00
  0.00000000E+00  0.00000000E+00  0.00000000E+00
  0.00000000E+00  0.00000000E+00  0.00000000E+00
  0.00000000E+00  0.00000000E+00  0.00000000E+00
  0.00000000E+00  0.00000000E+00  0.00000000E+00
  0.00000000E+00  0.00000000E+00  0.00000000E+00
  0.00000000E+00  0.00000000E+00  0.00000000E+00
  0.00000000E+00  0.00000000E+00  0.00000000E+00
  0.00000000E+00  0.00000000E+00  0.00000000E+00
  0.00000000E+00  0.00000000E+00  0.00000000E+00
  0.00000000E+00  0.00000000E+00  0.00000000E+00
  0.00000000E+00  0.00000000E+00  0.00000000E+00
  0.00000000E+00  0.00000000E+00  0.00000000E+00
  0.00000000E+00  0.00000000E+00  0.00000000E+00
  0.00000000E+00  0.00000000E+00  0.00000000E+00
  0.00000000E+00  0.00000000E+00  0.00000000E+00
  0.00000000E+00  0.00000000E+00  0.00000000E+00
  0.00000000E+00  0.00000000E+00  0.00000000E+00
  0.00000000E+00  0.00000000E+00  0.00000000E+00
  0.00000000E+00  0.00000000E+00  0.00000000E+00
  0.00000000E+00  0.00000000E+00  0.00000000E+00
  0.00000000E+00  0.00000000E+00  0.00000000E+00
  0.00000000E+00  0.00000000E+00  0.00000000E+00
