Pt111                                   
   1.00000000000000     
    11.2227001190000006    0.0000000000000000    0.0000000000000000
     5.6113500595000003    9.7191434021000003    0.0000000000000000
     0.0000000000000000    0.0000000000000000   22.0000000000000000
   Pt
    80
Direct
  0.7839511330375365  0.8693621308415173  0.3268354718351177
  0.0340759469460826  0.8696046908589029  0.3269328180398180
  0.0340329943266500  0.6197633778008178  0.3270694313161757
  0.7877046027385205  0.8671397192398844  0.0233271210194943
  0.0374135038044721  0.8678203580259729  0.0235005050474895
  0.0373258018377326  0.6174649633159360  0.0236288293414888
  0.6197260931944342  0.2016575073424234  0.1262618870018040
  0.3696742723945748  0.9516559012918114  0.1263277057844540
  0.0347887167454756  0.3696666918857464  0.3270475371864077
  0.0372402812344781  0.3676576742513956  0.0237156688268927
  0.8697471652011612  0.2019347757581813  0.1263164992081509
  0.9516308274145669  0.5358824185352877  0.2267740467081393
  0.2847701556595095  0.1193797303647682  0.3271010765418593
  0.5341857942625463  0.6194436995079262  0.3270716012336395
  0.2849346017948464  0.3695219138919807  0.3271566999712556
  0.2878416332136017  0.1175961455998498  0.0235580762919175
  0.5368636968255135  0.6174534303844789  0.0232953783008945
  0.2871352301514378  0.3677865874134367  0.0236672008913283
  0.6195255029755938  0.9515049023195985  0.1262097703402403
  0.7013333536277923  0.7855137365254059  0.2265096112455330
  0.8691445870670326  0.7016448636555179  0.1263497019624641
  0.6191077113204950  0.4519364260022786  0.1263085332321181
  0.2841951807282154  0.8695512848748607  0.3270453663154146
  0.2874348139767514  0.8676964216225970  0.0233745310004698
  0.6189101932902072  0.7016659560569011  0.1261966562488903
  0.2020594819188349  0.0358484350714719  0.2267148385941760
  0.8668376768768206  0.9530154751679927  0.4296932376436588
  0.1175532343356016  0.4534097063234046  0.4299921970214384
  0.1166183031536962  0.9533127371623031  0.4298371762380465
  0.8676609024123147  0.4527425279058679  0.4298413840211388
  0.3666614403925847  0.9532173736614592  0.4300449268615940
  0.8672719050645068  0.2030000154214137  0.4297246575751865
  0.1172771146286687  0.2032854838072728  0.4298547883556704
  0.6170003827210812  0.9527926166220287  0.4298730451306013
  0.8667413770249575  0.7030329008107095  0.4298792474462252
  0.3674684893953621  0.2029584932231608  0.4299921070445428
  0.3671256852433055  0.7033371557826598  0.4300961963810426
  0.6175218311174393  0.4527496209628133  0.4299244017405260
  0.1169793870236273  0.7032422508239119  0.4299248928347249
  0.6173004366345629  0.2028421899130393  0.4297734725739952
  0.5346923880441194  0.3694912826237907  0.3269911215429417
  0.5373969442119605  0.3672726460866925  0.0234416592838990
  0.5347720193290901  0.1191277928637690  0.3269318224176601
  0.5376212660009732  0.1174246151894804  0.0234018361030258
  0.8692402446829355  0.4518903494341301  0.1264233765536004
  0.1194479137636188  0.4518167878250934  0.1266273855907787
  0.0345610933942627  0.1195560393252422  0.3268693154184170
  0.0377503583854736  0.1177432215602118  0.0235585688136272
  0.1196899794026087  0.9518250529116336  0.1263550022942074
  0.3673679914828257  0.4532643232402305  0.4300789203748669
  0.4515537475935576  0.5358465500814252  0.2267716691870154
  0.6171171123327975  0.7027879957974159  0.4299893400826405
  0.3698204677033474  0.2017868071055605  0.1265028674348931
  0.1199227297396227  0.2018610965140256  0.1265130718844463
  0.9513953154722332  0.7858622773991114  0.2266585277870716
  0.7840748377369852  0.6194560315913327  0.3269504643199404
  0.2842780564981089  0.6197022557916901  0.3271386632368248
  0.7870507728504874  0.6175132356748940  0.0233709662450746
  0.2870988857116119  0.6175168580784148  0.0234996127141803
  0.3689823720284803  0.7018363651993904  0.1263440458471845
  0.3693635078823183  0.4518155666034087  0.1265403698058164
  0.2022900250702031  0.2857477717148380  0.2269079335694496
  0.7846000693661686  0.3695271843753589  0.3268905618385544
  0.7872072996179089  0.3675707449266894  0.0234133372014236
  0.9519602077185632  0.0357987293739605  0.2265398747526352
  0.4513764940233079  0.7856565882283508  0.2266405650821635
  0.7015428861612514  0.5358071486040684  0.2266556726172359
  0.2014114888385298  0.7858917998511903  0.2267412807679340
  0.4519725729603356  0.0355472016347090  0.2266920882438337
  0.1191823756412813  0.7018194177818430  0.1264847352476020
  0.7019455474196036  0.0355589707542111  0.2264870232993471
  0.7844767397716982  0.1195088972978076  0.3267280500414135
  0.5341477229379594  0.8691974372016189  0.3269757839561154
  0.7877873966896913  0.1173865647419371  0.0234159593511394
  0.5375269956321310  0.8675460608844154  0.0232052328113544
  0.2016734835803098  0.5359041327487134  0.2269230446782454
  0.9521462492518302  0.2859162546205362  0.2267022245915239
  0.8695709862495693  0.9516682233554399  0.1262713202590749
  0.7020754454864052  0.2857550271383269  0.2265047639856031
  0.4523252776232631  0.2856244828420409  0.2267636924131902
 
  0.00000000E+00  0.00000000E+00  0.00000000E+00
  0.00000000E+00  0.00000000E+00  0.00000000E+00
  0.00000000E+00  0.00000000E+00  0.00000000E+00
  0.00000000E+00  0.00000000E+00  0.00000000E+00
  0.00000000E+00  0.00000000E+00  0.00000000E+00
  0.00000000E+00  0.00000000E+00  0.00000000E+00
  0.00000000E+00  0.00000000E+00  0.00000000E+00
  0.00000000E+00  0.00000000E+00  0.00000000E+00
  0.00000000E+00  0.00000000E+00  0.00000000E+00
  0.00000000E+00  0.00000000E+00  0.00000000E+00
  0.00000000E+00  0.00000000E+00  0.00000000E+00
  0.00000000E+00  0.00000000E+00  0.00000000E+00
  0.00000000E+00  0.00000000E+00  0.00000000E+00
  0.00000000E+00  0.00000000E+00  0.00000000E+00
  0.00000000E+00  0.00000000E+00  0.00000000E+00
  0.00000000E+00  0.00000000E+00  0.00000000E+00
  0.00000000E+00  0.00000000E+00  0.00000000E+00
  0.00000000E+00  0.00000000E+00  0.00000000E+00
  0.00000000E+00  0.00000000E+00  0.00000000E+00
  0.00000000E+00  0.00000000E+00  0.00000000E+00
  0.00000000E+00  0.00000000E+00  0.00000000E+00
  0.00000000E+00  0.00000000E+00  0.00000000E+00
  0.00000000E+00  0.00000000E+00  0.00000000E+00
  0.00000000E+00  0.00000000E+00  0.00000000E+00
  0.00000000E+00  0.00000000E+00  0.00000000E+00
  0.00000000E+00  0.00000000E+00  0.00000000E+00
  0.00000000E+00  0.00000000E+00  0.00000000E+00
  0.00000000E+00  0.00000000E+00  0.00000000E+00
  0.00000000E+00  0.00000000E+00  0.00000000E+00
  0.00000000E+00  0.00000000E+00  0.00000000E+00
  0.00000000E+00  0.00000000E+00  0.00000000E+00
  0.00000000E+00  0.00000000E+00  0.00000000E+00
  0.00000000E+00  0.00000000E+00  0.00000000E+00
  0.00000000E+00  0.00000000E+00  0.00000000E+00
  0.00000000E+00  0.00000000E+00  0.00000000E+00
  0.00000000E+00  0.00000000E+00  0.00000000E+00
  0.00000000E+00  0.00000000E+00  0.00000000E+00
  0.00000000E+00  0.00000000E+00  0.00000000E+00
  0.00000000E+00  0.00000000E+00  0.00000000E+00
  0.00000000E+00  0.00000000E+00  0.00000000E+00
  0.00000000E+00  0.00000000E+00  0.00000000E+00
  0.00000000E+00  0.00000000E+00  0.00000000E+00
  0.00000000E+00  0.00000000E+00  0.00000000E+00
  0.00000000E+00  0.00000000E+00  0.00000000E+00
  0.00000000E+00  0.00000000E+00  0.00000000E+00
  0.00000000E+00  0.00000000E+00  0.00000000E+00
  0.00000000E+00  0.00000000E+00  0.00000000E+00
  0.00000000E+00  0.00000000E+00  0.00000000E+00
  0.00000000E+00  0.00000000E+00  0.00000000E+00
  0.00000000E+00  0.00000000E+00  0.00000000E+00
  0.00000000E+00  0.00000000E+00  0.00000000E+00
  0.00000000E+00  0.00000000E+00  0.00000000E+00
  0.00000000E+00  0.00000000E+00  0.00000000E+00
  0.00000000E+00  0.00000000E+00  0.00000000E+00
  0.00000000E+00  0.00000000E+00  0.00000000E+00
  0.00000000E+00  0.00000000E+00  0.00000000E+00
  0.00000000E+00  0.00000000E+00  0.00000000E+00
  0.00000000E+00  0.00000000E+00  0.00000000E+00
  0.00000000E+00  0.00000000E+00  0.00000000E+00
  0.00000000E+00  0.00000000E+00  0.00000000E+00
  0.00000000E+00  0.00000000E+00  0.00000000E+00
  0.00000000E+00  0.00000000E+00  0.00000000E+00
  0.00000000E+00  0.00000000E+00  0.00000000E+00
  0.00000000E+00  0.00000000E+00  0.00000000E+00
  0.00000000E+00  0.00000000E+00  0.00000000E+00
  0.00000000E+00  0.00000000E+00  0.00000000E+00
  0.00000000E+00  0.00000000E+00  0.00000000E+00
  0.00000000E+00  0.00000000E+00  0.00000000E+00
  0.00000000E+00  0.00000000E+00  0.00000000E+00
  0.00000000E+00  0.00000000E+00  0.00000000E+00
  0.00000000E+00  0.00000000E+00  0.00000000E+00
  0.00000000E+00  0.00000000E+00  0.00000000E+00
  0.00000000E+00  0.00000000E+00  0.00000000E+00
  0.00000000E+00  0.00000000E+00  0.00000000E+00
  0.00000000E+00  0.00000000E+00  0.00000000E+00
  0.00000000E+00  0.00000000E+00  0.00000000E+00
  0.00000000E+00  0.00000000E+00  0.00000000E+00
  0.00000000E+00  0.00000000E+00  0.00000000E+00
  0.00000000E+00  0.00000000E+00  0.00000000E+00
  0.00000000E+00  0.00000000E+00  0.00000000E+00
