PtM\(2)                                 
   1.00000000000000     
    10.5600004195999997    0.0000000000000000    0.0000000000000000
     5.2800002097999998    9.1452286273999999    0.0000000000000000
     0.0000000000000000    0.0000000000000000   22.0000000000000000
   Co   Pt   H 
    64    16     1
Selective dynamics
Direct
  0.7851584982415645  0.8689095620301828  0.3113704737363605   F   F   F
  0.0345940224398831  0.8691372837072251  0.3114831252454522   F   F   F
  0.0346698323677330  0.6195007732912927  0.3116114108590935   F   F   F
  0.7867273660717160  0.8679642656956403  0.0512459387681830   F   F   F
  0.0365582889316727  0.8681155879376945  0.0512968500727240   F   F   F
  0.0366385040692379  0.6180027208140757  0.0513268320045484   F   F   F
  0.6197458139953724  0.2015653887074080  0.1359842224363632   F   F   F
  0.3696581151044427  0.9516587404413883  0.1359628183681849   F   F   F
  0.0350575791190906  0.3690090300519273  0.3114523364545434   F   F   F
  0.0365963083346230  0.3681210410982487  0.0513400607590881   F   F   F
  0.8696445805581874  0.2016593805292644  0.1359685681136398   F   F   F
  0.9519993928495367  0.5357519495926439  0.2261441579681787   F   F   F
  0.2843092816795121  0.1199333131829903  0.3113994773454536   F   F   F
  0.5344453168923096  0.6187753067698694  0.3125158762636389   F   F   F
  0.2853271856626449  0.3700627869772717  0.3118088475954579   F   F   F
  0.2866892341020844  0.1181642286735496  0.0512986875090888   F   F   F
  0.5364312247542529  0.6180888009911953  0.0512321504227273   F   F   F
  0.2865494571265899  0.3680887902806873  0.0513541229409071   F   F   F
  0.6196855222964857  0.9516086189169641  0.1359457447227257   F   F   F
  0.7019638398560915  0.7853264153814621  0.2260615996454547   F   F   F
  0.8696068445877501  0.7016434521139203  0.1359744543409107   F   F   F
  0.6196787033340101  0.4516972511571211  0.1359518773045423   F   F   F
  0.2844699066386553  0.8702376449349245  0.3115998537500033   F   F   F
  0.2864484617105987  0.8681479668001657  0.0512844256863616   F   F   F
  0.6195877735811877  0.7016649391655889  0.1359121752636341   F   F   F
  0.2022377438116152  0.0352958238608565  0.2259899712636368   F   F   F
  0.5344225753082839  0.3706474352914739  0.3126173861136365   F   F   F
  0.5366727813368897  0.3679689281050500  0.0512926962318190   F   F   F
  0.5356158416270773  0.1189912450017516  0.3114500740363653   F   F   F
  0.5366727297449145  0.1180819610856503  0.0512831161363607   F   F   F
  0.8695347579033736  0.4517599086940010  0.1360032284090877   F   F   F
  0.1196881004386654  0.4516315490708749  0.1360589541590898   F   F   F
  0.0349476874004608  0.1198798152530927  0.3113414537136379   F   F   F
  0.0367073024034212  0.1181355239455755  0.0512976033590888   F   F   F
  0.1195841194112788  0.9517098196345941  0.1359996366499985   F   F   F
  0.4521721177325944  0.5355747072440877  0.2264659857590914   F   F   F
  0.3697648022638447  0.2016092602732655  0.1360238306954571   F   F   F
  0.1197124802163927  0.2016080101678313  0.1360219540863667   F   F   F
  0.9523612865928044  0.7853321168572975  0.2260789343454519   F   F   F
  0.7848883684667101  0.6193941495271744  0.3115872232318182   F   F   F
  0.2860167287849009  0.6188666947311816  0.3124725373318213   F   F   F
  0.7866122012324155  0.6180570610520562  0.0512491053409079   F   F   F
  0.2865146433568171  0.6180287077969808  0.0513054318772745   F   F   F
  0.3695989973367162  0.7017014523150777  0.1359655195227276   F   F   F
  0.3697484436136094  0.4516451135868707  0.1360192398909064   F   F   F
  0.2024681441358283  0.2862713818390645  0.2261199472363629   F   F   F
  0.7842728574968092  0.3698803415439258  0.3117306198590910   F   F   F
  0.7867185081021617  0.3680613783361437  0.0512697199636349   F   F   F
  0.9519321023777323  0.0355615599620549  0.2261428385000031   F   F   F
  0.4522671777354788  0.7847433559285832  0.2264317575227253   F   F   F
  0.7008109226492607  0.5362084593498153  0.2263760622181792   F   F   F
  0.2026173723305860  0.7849181712301032  0.2264340059272740   F   F   F
  0.4521805546024211  0.0355124950213863  0.2261319183954527   F   F   F
  0.1196483908887416  0.7016781133140881  0.1360106184272709   F   F   F
  0.7020805011354199  0.0354888515665550  0.2260320959272732   F   F   F
  0.7844717412049107  0.1190099796673323  0.3114913034954512   F   F   F
  0.5352547861049217  0.8691895718149922  0.3114691612636378   F   F   F
  0.7867138903031332  0.1180528005352812  0.0512607778181788   F   F   F
  0.5365868230827999  0.8681333544809533  0.0512481075045486   F   F   F
  0.2025994885982385  0.5362128662489383  0.2263985473409065   F   F   F
  0.9510478318660063  0.2862924064528656  0.2260409026999994   F   F   F
  0.8695596740848686  0.9516473608789653  0.1359644263590880   F   F   F
  0.7011782203552599  0.2862678442566491  0.2264244961045421   F   F   F
  0.4524227949111292  0.2862995216167050  0.2264434441681829   F   F   F
  0.8676480306668992  0.9535836352709453  0.4090853694499970   F   F   F
  0.1170634544240627  0.4535040664236618  0.4089012835681842   F   F   F
  0.1171534561806382  0.9540399381661473  0.4087486813545453   F   F   F
  0.8685017748155701  0.4534463797521227  0.4089207253772713   F   F   F
  0.3675897680997764  0.9541253374526875  0.4088109466545475   F   F   F
  0.8684164297261390  0.2028468706339410  0.4087185085409075   F   F   F
  0.1176384774274837  0.2035663424993288  0.4089073745681802   F   F   F
  0.6173202398002715  0.9536927773099961  0.4090829357090939   F   F   F
  0.8676491011315548  0.7034342059668006  0.4092085322772760   F   F   F
  0.3675141446423495  0.2030554094444739  0.4087615643136360   F   F   F
  0.3657658055348350  0.7072463034463041  0.4114299060727262   F   F   F
  0.6217281933075398  0.4512912726352880  0.4117411789818206   F   F   F
  0.1156455706640358  0.7043683181413627  0.4088334916318175   F   F   F
  0.6186643845233419  0.2014311024965281  0.4088738801181790   F   F   F
  0.3660050379357855  0.4515985390486819  0.4115850726499986   F   F   F
  0.6188220610399711  0.7043661259818421  0.4088139734090888   F   F   F
  0.4523973005671209  0.5381058837671802  0.4564764970590922   T   T   T
 
  0.00000000E+00  0.00000000E+00  0.00000000E+00
  0.00000000E+00  0.00000000E+00  0.00000000E+00
  0.00000000E+00  0.00000000E+00  0.00000000E+00
  0.00000000E+00  0.00000000E+00  0.00000000E+00
  0.00000000E+00  0.00000000E+00  0.00000000E+00
  0.00000000E+00  0.00000000E+00  0.00000000E+00
  0.00000000E+00  0.00000000E+00  0.00000000E+00
  0.00000000E+00  0.00000000E+00  0.00000000E+00
  0.00000000E+00  0.00000000E+00  0.00000000E+00
  0.00000000E+00  0.00000000E+00  0.00000000E+00
  0.00000000E+00  0.00000000E+00  0.00000000E+00
  0.00000000E+00  0.00000000E+00  0.00000000E+00
  0.00000000E+00  0.00000000E+00  0.00000000E+00
  0.00000000E+00  0.00000000E+00  0.00000000E+00
  0.00000000E+00  0.00000000E+00  0.00000000E+00
  0.00000000E+00  0.00000000E+00  0.00000000E+00
  0.00000000E+00  0.00000000E+00  0.00000000E+00
  0.00000000E+00  0.00000000E+00  0.00000000E+00
  0.00000000E+00  0.00000000E+00  0.00000000E+00
  0.00000000E+00  0.00000000E+00  0.00000000E+00
  0.00000000E+00  0.00000000E+00  0.00000000E+00
  0.00000000E+00  0.00000000E+00  0.00000000E+00
  0.00000000E+00  0.00000000E+00  0.00000000E+00
  0.00000000E+00  0.00000000E+00  0.00000000E+00
  0.00000000E+00  0.00000000E+00  0.00000000E+00
  0.00000000E+00  0.00000000E+00  0.00000000E+00
  0.00000000E+00  0.00000000E+00  0.00000000E+00
  0.00000000E+00  0.00000000E+00  0.00000000E+00
  0.00000000E+00  0.00000000E+00  0.00000000E+00
  0.00000000E+00  0.00000000E+00  0.00000000E+00
  0.00000000E+00  0.00000000E+00  0.00000000E+00
  0.00000000E+00  0.00000000E+00  0.00000000E+00
  0.00000000E+00  0.00000000E+00  0.00000000E+00
  0.00000000E+00  0.00000000E+00  0.00000000E+00
  0.00000000E+00  0.00000000E+00  0.00000000E+00
  0.00000000E+00  0.00000000E+00  0.00000000E+00
  0.00000000E+00  0.00000000E+00  0.00000000E+00
  0.00000000E+00  0.00000000E+00  0.00000000E+00
  0.00000000E+00  0.00000000E+00  0.00000000E+00
  0.00000000E+00  0.00000000E+00  0.00000000E+00
  0.00000000E+00  0.00000000E+00  0.00000000E+00
  0.00000000E+00  0.00000000E+00  0.00000000E+00
  0.00000000E+00  0.00000000E+00  0.00000000E+00
  0.00000000E+00  0.00000000E+00  0.00000000E+00
  0.00000000E+00  0.00000000E+00  0.00000000E+00
  0.00000000E+00  0.00000000E+00  0.00000000E+00
  0.00000000E+00  0.00000000E+00  0.00000000E+00
  0.00000000E+00  0.00000000E+00  0.00000000E+00
  0.00000000E+00  0.00000000E+00  0.00000000E+00
  0.00000000E+00  0.00000000E+00  0.00000000E+00
  0.00000000E+00  0.00000000E+00  0.00000000E+00
  0.00000000E+00  0.00000000E+00  0.00000000E+00
  0.00000000E+00  0.00000000E+00  0.00000000E+00
  0.00000000E+00  0.00000000E+00  0.00000000E+00
  0.00000000E+00  0.00000000E+00  0.00000000E+00
  0.00000000E+00  0.00000000E+00  0.00000000E+00
  0.00000000E+00  0.00000000E+00  0.00000000E+00
  0.00000000E+00  0.00000000E+00  0.00000000E+00
  0.00000000E+00  0.00000000E+00  0.00000000E+00
  0.00000000E+00  0.00000000E+00  0.00000000E+00
  0.00000000E+00  0.00000000E+00  0.00000000E+00
  0.00000000E+00  0.00000000E+00  0.00000000E+00
  0.00000000E+00  0.00000000E+00  0.00000000E+00
  0.00000000E+00  0.00000000E+00  0.00000000E+00
  0.00000000E+00  0.00000000E+00  0.00000000E+00
  0.00000000E+00  0.00000000E+00  0.00000000E+00
  0.00000000E+00  0.00000000E+00  0.00000000E+00
  0.00000000E+00  0.00000000E+00  0.00000000E+00
  0.00000000E+00  0.00000000E+00  0.00000000E+00
  0.00000000E+00  0.00000000E+00  0.00000000E+00
  0.00000000E+00  0.00000000E+00  0.00000000E+00
  0.00000000E+00  0.00000000E+00  0.00000000E+00
  0.00000000E+00  0.00000000E+00  0.00000000E+00
  0.00000000E+00  0.00000000E+00  0.00000000E+00
  0.00000000E+00  0.00000000E+00  0.00000000E+00
  0.00000000E+00  0.00000000E+00  0.00000000E+00
  0.00000000E+00  0.00000000E+00  0.00000000E+00
  0.00000000E+00  0.00000000E+00  0.00000000E+00
  0.00000000E+00  0.00000000E+00  0.00000000E+00
  0.00000000E+00  0.00000000E+00  0.00000000E+00
  0.00000000E+00  0.00000000E+00  0.00000000E+00
