Pt   H                                  
   1.00000000000000     
    10.5600004195999997    0.0000000000000000    0.0000000000000000
    -5.2800002097999998    9.1452286273999999    0.0000000000000000
     0.0000000000000000    0.0000000000000000   20.0000000000000000
   Pt   H 
    64     2
Selective dynamics
Direct
  0.9999984446215961  0.0000015553793773  0.0557922949150012   F   F   F
  0.3336338265983559  0.1680301072407384  0.1794666457112544   T   T   T
  0.1679546290375858  0.3330297097565340  0.3058245524882164   T   T   T
  0.0000497178497369  0.0005359654876296  0.4164360445160619   T   T   T
  0.9999984416169312  0.2500015483757210  0.0557922949150012   F   F   F
  0.3336628478641150  0.4163795275997171  0.1863565598805347   T   T   T
  0.1689989469321115  0.0864625686123830  0.3002304669755281   T   T   T
  0.9994363453619735  0.2496989227597049  0.4201796252916909   T   T   T
  0.2499984416169312  0.2500015483757210  0.0557922949150012   F   F   F
  0.0849013785841529  0.4161186759798345  0.1782068571684852   T   T   T
  0.4167403342528302  0.0840020313286160  0.2967033614110219   T   T   T
  0.2479241471979705  0.2482452440859046  0.4381191468874738   T   T   T
  0.2499984446215961  0.0000015553793773  0.0557922949150012   F   F   F
  0.0853504957267300  0.1680065871230529  0.1796965225010487   T   T   T
  0.4159761338485101  0.3341846283510432  0.3065885714578421   T   T   T
  0.2494813595546990 -0.0001685634320657  0.4184280644374809   T   T   T
  0.4999984446215961  0.0000015553793773  0.0557922949150012   F   F   F
  0.8340522174470690  0.1666605810209503  0.1773396718687421   T   T   T
  0.6660613519319968  0.3333295946489573  0.2964432480410620   T   T   T
  0.4998733816910668  0.9999234441086396  0.4180922503975407   T   T   T
  0.4999984296188273  0.2500015483757210  0.0557922949150012   F   F   F
  0.8331902449507013  0.4160844958675104  0.1758512704656919   T   T   T
  0.6665170898926884  0.0834591350377695  0.2967463512773746   T   T   T
  0.4998155753372612  0.2498979614224617  0.4188323520757735   T   T   T
  0.7499984076207227  0.2500015483757210  0.0557922949150012   F   F   F
  0.5820000874552339  0.4164313032540378  0.1793671884891057   T   T   T
  0.9170499483072755  0.0836222675267700  0.2965870424784666   T   T   T
  0.7497565837083954  0.2498571311653257  0.4180489409740999   T   T   T
  0.7499984216197078  0.0000015553793773  0.0557922949150012   F   F   F
  0.5830858526895345  0.1669248675778179  0.1767910868346134   T   T   T
  0.9173040850209502  0.3328850727062900  0.2962317312015090   T   T   T
  0.7496290936761758  1.0000963422482412  0.4182100938620313   T   T   T
  0.9999984376190483  0.5000015423780582  0.0557922949150012   F   F   F
  0.3339948087210380  0.6652005781752438  0.1782981859028658   T   T   T
  0.1675713085082701  0.8341894986493127  0.2934448501171700   T   T   T
  0.9994275087745741  0.5000754883870636  0.4156132968557575   T   T   T
  0.9999984326223199  0.7500015093827130  0.0557922949150012   F   F   F
  0.3339776449936939  0.9168962358130404  0.1761052617157269   T   T   T
  0.1680485567085296  0.5820942583284275  0.2964460027215043   T   T   T
  0.9994963835545275  0.7501614919050087  0.4113975327173264   T   T   T
  0.2499984326223199  0.7500015093827130  0.0557922949150012   F   F   F
  0.0843149104407747  0.9180540356440829  0.1756230154183056   T   T   T
  0.4169885173906339  0.5820942789974101  0.3060246243763806   T   T   T
  0.2496487975025589  0.7502816888078956  0.4160392356250089   T   T   T
  0.2499984376190483  0.5000015423780582  0.0557922949150012   F   F   F
  0.0839024259287934  0.6662825779880206  0.1746586015846327   T   T   T
  0.4171267103756344  0.8326780713453622  0.2964502249678886   T   T   T
  0.2487164921239345  0.5008195985473740  0.4257182824114723   T   T   T
  0.4999984376190483  0.5000015423780582  0.0557922949150012   F   F   F
  0.8319486995667036  0.6657594890778029  0.1756189259171691   T   T   T
  0.6663541777581693  0.8328871866388349  0.2968825776711314   T   T   T
  0.5011006908841215  0.5016475393413607  0.4384779095975848   T   T   T
  0.4999984326223199  0.7500015093827130  0.0557922949150012   F   F   F
  0.8331256693482507  0.9168239316978013  0.1754846565512037   T   T   T
  0.6635867859602840  0.5811595741629236  0.3004476238706086   T   T   T
  0.5000051377883999  0.7502253636258938  0.4204622816290550   T   T   T
  0.7499984106242152  0.7500015093827130  0.0557922949150012   F   F   F
  0.5833318080816454  0.9159407227033801  0.1773870282010496   T   T   T
  0.9159158210917766  0.5825336124933023  0.2931622798337707   T   T   T
  0.7491651847341877  0.7496177807452963  0.4170336112785771   T   T   T
  0.7499983926190481  0.5000015423780582  0.0557922949150012   F   F   F
  0.5819975107379174  0.6646759654307284  0.1800066667314741   T   T   T
  0.9161056132321691  0.8337464217020490  0.2927570942465837   T   T   T
  0.7497590681737165  0.5001917375920818  0.4181008214743200   T   T   T
  0.3547917342182597  0.4002955024994254  0.5208665574546313   T   T   T
  0.3962537725974576  0.3505688762326329  0.5210718109916044   T   T   T
 
  0.00000000E+00  0.00000000E+00  0.00000000E+00
  0.00000000E+00  0.00000000E+00  0.00000000E+00
  0.00000000E+00  0.00000000E+00  0.00000000E+00
  0.00000000E+00  0.00000000E+00  0.00000000E+00
  0.00000000E+00  0.00000000E+00  0.00000000E+00
  0.00000000E+00  0.00000000E+00  0.00000000E+00
  0.00000000E+00  0.00000000E+00  0.00000000E+00
  0.00000000E+00  0.00000000E+00  0.00000000E+00
  0.00000000E+00  0.00000000E+00  0.00000000E+00
  0.00000000E+00  0.00000000E+00  0.00000000E+00
  0.00000000E+00  0.00000000E+00  0.00000000E+00
  0.00000000E+00  0.00000000E+00  0.00000000E+00
  0.00000000E+00  0.00000000E+00  0.00000000E+00
  0.00000000E+00  0.00000000E+00  0.00000000E+00
  0.00000000E+00  0.00000000E+00  0.00000000E+00
  0.00000000E+00  0.00000000E+00  0.00000000E+00
  0.00000000E+00  0.00000000E+00  0.00000000E+00
  0.00000000E+00  0.00000000E+00  0.00000000E+00
  0.00000000E+00  0.00000000E+00  0.00000000E+00
  0.00000000E+00  0.00000000E+00  0.00000000E+00
  0.00000000E+00  0.00000000E+00  0.00000000E+00
  0.00000000E+00  0.00000000E+00  0.00000000E+00
  0.00000000E+00  0.00000000E+00  0.00000000E+00
  0.00000000E+00  0.00000000E+00  0.00000000E+00
  0.00000000E+00  0.00000000E+00  0.00000000E+00
  0.00000000E+00  0.00000000E+00  0.00000000E+00
  0.00000000E+00  0.00000000E+00  0.00000000E+00
  0.00000000E+00  0.00000000E+00  0.00000000E+00
  0.00000000E+00  0.00000000E+00  0.00000000E+00
  0.00000000E+00  0.00000000E+00  0.00000000E+00
  0.00000000E+00  0.00000000E+00  0.00000000E+00
  0.00000000E+00  0.00000000E+00  0.00000000E+00
  0.00000000E+00  0.00000000E+00  0.00000000E+00
  0.00000000E+00  0.00000000E+00  0.00000000E+00
  0.00000000E+00  0.00000000E+00  0.00000000E+00
  0.00000000E+00  0.00000000E+00  0.00000000E+00
  0.00000000E+00  0.00000000E+00  0.00000000E+00
  0.00000000E+00  0.00000000E+00  0.00000000E+00
  0.00000000E+00  0.00000000E+00  0.00000000E+00
  0.00000000E+00  0.00000000E+00  0.00000000E+00
  0.00000000E+00  0.00000000E+00  0.00000000E+00
  0.00000000E+00  0.00000000E+00  0.00000000E+00
  0.00000000E+00  0.00000000E+00  0.00000000E+00
  0.00000000E+00  0.00000000E+00  0.00000000E+00
  0.00000000E+00  0.00000000E+00  0.00000000E+00
  0.00000000E+00  0.00000000E+00  0.00000000E+00
  0.00000000E+00  0.00000000E+00  0.00000000E+00
  0.00000000E+00  0.00000000E+00  0.00000000E+00
  0.00000000E+00  0.00000000E+00  0.00000000E+00
  0.00000000E+00  0.00000000E+00  0.00000000E+00
  0.00000000E+00  0.00000000E+00  0.00000000E+00
  0.00000000E+00  0.00000000E+00  0.00000000E+00
  0.00000000E+00  0.00000000E+00  0.00000000E+00
  0.00000000E+00  0.00000000E+00  0.00000000E+00
  0.00000000E+00  0.00000000E+00  0.00000000E+00
  0.00000000E+00  0.00000000E+00  0.00000000E+00
  0.00000000E+00  0.00000000E+00  0.00000000E+00
  0.00000000E+00  0.00000000E+00  0.00000000E+00
  0.00000000E+00  0.00000000E+00  0.00000000E+00
  0.00000000E+00  0.00000000E+00  0.00000000E+00
  0.00000000E+00  0.00000000E+00  0.00000000E+00
  0.00000000E+00  0.00000000E+00  0.00000000E+00
  0.00000000E+00  0.00000000E+00  0.00000000E+00
  0.00000000E+00  0.00000000E+00  0.00000000E+00
  0.00000000E+00  0.00000000E+00  0.00000000E+00
  0.00000000E+00  0.00000000E+00  0.00000000E+00
