Co   Pt   H                             
   1.00000000000000     
    10.5600004195999997    0.0000000000000000    0.0000000000000000
     5.2800002097999998    9.1452286273999999    0.0000000000000000
     0.0000000000000000    0.0000000000000000   22.0000000000000000
   Co   Pt   H 
    64    16     2
Selective dynamics
Direct
  0.7857570108330407  0.8690670976987254  0.3113725980258173   T   T   T
  0.0349915021694100  0.8692464987797952  0.3114093528990645   T   T   T
  0.0357787045951139  0.6184789593857772  0.3113729718493184   T   T   T
  0.7867273660717160  0.8679642656956403  0.0512459387681830   F   F   F
  0.0365582889316727  0.8681155879376945  0.0512968500727240   F   F   F
  0.0366385040692379  0.6180027208140757  0.0513268320045484   F   F   F
  0.6197458139953724  0.2015653887074080  0.1359842224363632   F   F   F
  0.3696581151044427  0.9516587404413883  0.1359628183681849   F   F   F
  0.0355290779087201  0.3686693863870102  0.3114194057126085   T   T   T
  0.0365963083346230  0.3681210410982487  0.0513400607590881   F   F   F
  0.8696445805581874  0.2016593805292644  0.1359685681136398   F   F   F
  0.9525762888425798  0.5351304711605723  0.2260532710763053   T   T   T
  0.2853490321039913  0.1188458924318791  0.3114323103644518   T   T   T
  0.5361073158996522  0.6194006713029300  0.3104493577222307   T   T   T
  0.2850063146860727  0.3682461445470147  0.3112070331172292   T   T   T
  0.2866892341020844  0.1181642286735496  0.0512986875090888   F   F   F
  0.5364312247542529  0.6180888009911953  0.0512321504227273   F   F   F
  0.2865494571265899  0.3680887902806873  0.0513541229409071   F   F   F
  0.6196855222964857  0.9516086189169641  0.1359457447227257   F   F   F
  0.7024100521603500  0.7853636878492365  0.2261443102323635   T   T   T
  0.8696068445877501  0.7016434521139203  0.1359744543409107   F   F   F
  0.6196787033340101  0.4516972511571211  0.1359518773045423   F   F   F
  0.2866189105807318  0.8675928273628732  0.3117086109557513   T   T   T
  0.2864484617105987  0.8681479668001657  0.0512844256863616   F   F   F
  0.6195877735811877  0.7016649391655889  0.1359121752636341   F   F   F
  0.2025688423285154  0.0350152681304371  0.2261668433432306   T   T   T
  0.5358622138101131  0.3688712297639481  0.3108926228845602   T   T   T
  0.5366727813368897  0.3679689281050500  0.0512926962318190   F   F   F
  0.5351025540057511  0.1191421543917511  0.3113745123024934   T   T   T
  0.5366727297449145  0.1180819610856503  0.0512831161363607   F   F   F
  0.8695347579033736  0.4517599086940010  0.1360032284090877   F   F   F
  0.1196881004386654  0.4516315490708749  0.1360589541590898   F   F   F
  0.0356749270755082  0.1190469359421919  0.3114315816587573   T   T   T
  0.0367073024034212  0.1181355239455755  0.0512976033590888   F   F   F
  0.1195841194112788  0.9517098196345941  0.1359996366499985   F   F   F
  0.4523822001332513  0.5353910945765594  0.2257851914629485   T   T   T
  0.3697648022638447  0.2016092602732655  0.1360238306954571   F   F   F
  0.1197124802163927  0.2016080101678313  0.1360219540863667   F   F   F
  0.9525145144872623  0.7852496403253425  0.2261126682862238   T   T   T
  0.7860989741688393  0.6181006778549238  0.3112482038802898   T   T   T
  0.2855205668868100  0.6191680873935309  0.3108835993313380   T   T   T
  0.7866122012324155  0.6180570610520562  0.0512491053409079   F   F   F
  0.2865146433568171  0.6180287077969808  0.0513054318772745   F   F   F
  0.3695989973367162  0.7017014523150777  0.1359655195227276   F   F   F
  0.3697484436136094  0.4516451135868707  0.1360192398909064   F   F   F
  0.2023388791906586  0.2851722054364915  0.2260208177350374   T   T   T
  0.7839956688509224  0.3700074933001455  0.3117622481104390   T   T   T
  0.7867185081021617  0.3680613783361437  0.0512697199636349   F   F   F
  0.9526567239230296  0.0356459229112262  0.2260876176337144   T   T   T
  0.4521365922273644  0.7856709780803495  0.2258283462210514   T   T   T
  0.7027080601792958  0.5350683399680572  0.2258431939640061   T   T   T
  0.2022346125842359  0.7858004767265717  0.2260291764648777   T   T   T
  0.4522041125349019  0.0355049018285446  0.2260461523202142   T   T   T
  0.1196483908887416  0.7016781133140881  0.1360106184272709   F   F   F
  0.7021954951905496  0.0355336542500742  0.2261222745298487   T   T   T
  0.7858640817757866  0.1183523935440402  0.3114071027559573   T   T   T
  0.5347123307164110  0.8694712387602747  0.3112568284451840   T   T   T
  0.7867138903031332  0.1180528005352812  0.0512607778181788   F   F   F
  0.5365868230827999  0.8681333544809533  0.0512481075045486   F   F   F
  0.2025764381177520  0.5352797255533558  0.2260310673143537   T   T   T
  0.9519880613607220  0.2855667753893893  0.2261850683028674   T   T   T
  0.8695596740848686  0.9516473608789653  0.1359644263590880   F   F   F
  0.7028961451703362  0.2851733656186239  0.2260394262201144   T   T   T
  0.4523536348176053  0.2855395115551962  0.2260206171078499   T   T   T
  0.8686009388726750  0.9524131629655438  0.4091027214048589   T   T   T
  0.1185812229501549  0.4521975463003055  0.4089556933621795   T   T   T
  0.1179595017830329  0.9531131660253128  0.4090209934083893   T   T   T
  0.8694323213064646  0.4522089422279421  0.4090454602835729   T   T   T
  0.3684064260003907  0.9531995711415028  0.4090585638100595   T   T   T
  0.8692976736402342  0.2017644008976805  0.4090232044484835   T   T   T
  0.1185817679735032  0.2024132349332799  0.4090122564862835   T   T   T
  0.6186954614512138  0.9527395676730419  0.4088559962173692   T   T   T
  0.8689247046046374  0.7025181081674748  0.4088522530892713   T   T   T
  0.3684084278480537  0.2023682010374634  0.4089748379277656   T   T   T
  0.3673934246489207  0.7035784260536705  0.4073121960333529   T   T   T
  0.6197058697164586  0.4512814043331693  0.4074869109964207   T   T   T
  0.1180788529858825  0.7025865449213580  0.4086226901099870   T   T   T
  0.6188007598842947  0.2018679828325656  0.4086208365169186   T   T   T
  0.3678741300033490  0.4516878804800052  0.4077162877235372   T   T   T
  0.6195500529680175  0.7033497178246371  0.4076784421544448   T   T   T
  0.4742015465050043  0.5569814689757110  0.4981851710305635   T   T   T
  0.5174829825058173  0.5987283352357631  0.4981494884140480   T   T   T
 
  0.00000000E+00  0.00000000E+00  0.00000000E+00
  0.00000000E+00  0.00000000E+00  0.00000000E+00
  0.00000000E+00  0.00000000E+00  0.00000000E+00
  0.00000000E+00  0.00000000E+00  0.00000000E+00
  0.00000000E+00  0.00000000E+00  0.00000000E+00
  0.00000000E+00  0.00000000E+00  0.00000000E+00
  0.00000000E+00  0.00000000E+00  0.00000000E+00
  0.00000000E+00  0.00000000E+00  0.00000000E+00
  0.00000000E+00  0.00000000E+00  0.00000000E+00
  0.00000000E+00  0.00000000E+00  0.00000000E+00
  0.00000000E+00  0.00000000E+00  0.00000000E+00
  0.00000000E+00  0.00000000E+00  0.00000000E+00
  0.00000000E+00  0.00000000E+00  0.00000000E+00
  0.00000000E+00  0.00000000E+00  0.00000000E+00
  0.00000000E+00  0.00000000E+00  0.00000000E+00
  0.00000000E+00  0.00000000E+00  0.00000000E+00
  0.00000000E+00  0.00000000E+00  0.00000000E+00
  0.00000000E+00  0.00000000E+00  0.00000000E+00
  0.00000000E+00  0.00000000E+00  0.00000000E+00
  0.00000000E+00  0.00000000E+00  0.00000000E+00
  0.00000000E+00  0.00000000E+00  0.00000000E+00
  0.00000000E+00  0.00000000E+00  0.00000000E+00
  0.00000000E+00  0.00000000E+00  0.00000000E+00
  0.00000000E+00  0.00000000E+00  0.00000000E+00
  0.00000000E+00  0.00000000E+00  0.00000000E+00
  0.00000000E+00  0.00000000E+00  0.00000000E+00
  0.00000000E+00  0.00000000E+00  0.00000000E+00
  0.00000000E+00  0.00000000E+00  0.00000000E+00
  0.00000000E+00  0.00000000E+00  0.00000000E+00
  0.00000000E+00  0.00000000E+00  0.00000000E+00
  0.00000000E+00  0.00000000E+00  0.00000000E+00
  0.00000000E+00  0.00000000E+00  0.00000000E+00
  0.00000000E+00  0.00000000E+00  0.00000000E+00
  0.00000000E+00  0.00000000E+00  0.00000000E+00
  0.00000000E+00  0.00000000E+00  0.00000000E+00
  0.00000000E+00  0.00000000E+00  0.00000000E+00
  0.00000000E+00  0.00000000E+00  0.00000000E+00
  0.00000000E+00  0.00000000E+00  0.00000000E+00
  0.00000000E+00  0.00000000E+00  0.00000000E+00
  0.00000000E+00  0.00000000E+00  0.00000000E+00
  0.00000000E+00  0.00000000E+00  0.00000000E+00
  0.00000000E+00  0.00000000E+00  0.00000000E+00
  0.00000000E+00  0.00000000E+00  0.00000000E+00
  0.00000000E+00  0.00000000E+00  0.00000000E+00
  0.00000000E+00  0.00000000E+00  0.00000000E+00
  0.00000000E+00  0.00000000E+00  0.00000000E+00
  0.00000000E+00  0.00000000E+00  0.00000000E+00
  0.00000000E+00  0.00000000E+00  0.00000000E+00
  0.00000000E+00  0.00000000E+00  0.00000000E+00
  0.00000000E+00  0.00000000E+00  0.00000000E+00
  0.00000000E+00  0.00000000E+00  0.00000000E+00
  0.00000000E+00  0.00000000E+00  0.00000000E+00
  0.00000000E+00  0.00000000E+00  0.00000000E+00
  0.00000000E+00  0.00000000E+00  0.00000000E+00
  0.00000000E+00  0.00000000E+00  0.00000000E+00
  0.00000000E+00  0.00000000E+00  0.00000000E+00
  0.00000000E+00  0.00000000E+00  0.00000000E+00
  0.00000000E+00  0.00000000E+00  0.00000000E+00
  0.00000000E+00  0.00000000E+00  0.00000000E+00
  0.00000000E+00  0.00000000E+00  0.00000000E+00
  0.00000000E+00  0.00000000E+00  0.00000000E+00
  0.00000000E+00  0.00000000E+00  0.00000000E+00
  0.00000000E+00  0.00000000E+00  0.00000000E+00
  0.00000000E+00  0.00000000E+00  0.00000000E+00
  0.00000000E+00  0.00000000E+00  0.00000000E+00
  0.00000000E+00  0.00000000E+00  0.00000000E+00
  0.00000000E+00  0.00000000E+00  0.00000000E+00
  0.00000000E+00  0.00000000E+00  0.00000000E+00
  0.00000000E+00  0.00000000E+00  0.00000000E+00
  0.00000000E+00  0.00000000E+00  0.00000000E+00
  0.00000000E+00  0.00000000E+00  0.00000000E+00
  0.00000000E+00  0.00000000E+00  0.00000000E+00
  0.00000000E+00  0.00000000E+00  0.00000000E+00
  0.00000000E+00  0.00000000E+00  0.00000000E+00
  0.00000000E+00  0.00000000E+00  0.00000000E+00
  0.00000000E+00  0.00000000E+00  0.00000000E+00
  0.00000000E+00  0.00000000E+00  0.00000000E+00
  0.00000000E+00  0.00000000E+00  0.00000000E+00
  0.00000000E+00  0.00000000E+00  0.00000000E+00
  0.00000000E+00  0.00000000E+00  0.00000000E+00
  0.00000000E+00  0.00000000E+00  0.00000000E+00
  0.00000000E+00  0.00000000E+00  0.00000000E+00
